LAMMPS (30 Mar 2018)
# hgh.comphys@gmail.com
# ---------------------

dimension   3
boundary    p p p

units       real
atom_style  full

read_data  go-h2o-ion.lmp
  orthogonal box = (-20.77 -21.282 -20) to (20.77 21.282 50)
  1 by 1 by 2 MPI processor grid
  reading atoms ...
  2596 atoms
  scanning bonds ...
  2 = max bonds/atom
  scanning angles ...
  3 = max angles/atom
  scanning dihedrals ...
  3 = max dihedrals/atom
  reading bonds ...
  892 bonds
  reading angles ...
  548 angles
  reading dihedrals ...
  102 dihedrals
  2 = max # of 1-2 neighbors
  1 = max # of 1-3 neighbors
  1 = max # of 1-4 neighbors
  2 = max # of special neighbors
#replicate 1 1 1
#read_restart   res.500000

group graphene type 1 2 3
1360 atoms in group graphene
group epoxy    type 4
34 atoms in group epoxy
group hydroxy  type 5 6
68 atoms in group hydroxy
group water    type 7 8
1134 atoms in group water
group h3o      type 9 10
0 atoms in group h3o
group oh       type 11 12
0 atoms in group oh

group functionals union epoxy hydroxy
102 atoms in group functionals
group substrate   union functionals graphene
1462 atoms in group substrate
group ions        union h3o oh
0 atoms in group ions
group fluid       union water ions
1134 atoms in group fluid

########################################################

pair_style hybrid lj/cut/coul/long 10 airebo 3.0 1 0

# set all default pair_coeffs to 0
pair_coeff      *   *   lj/cut/coul/long 0.00 0.00

# epoxy ----------------------------------

set type 2  charge  0.14 # C_epoxy
  68 settings made for charge
set type 4  charge -0.28 # O_epoxy
  34 settings made for charge

pair_coeff  2   7   lj/cut/coul/long 0.1012299728  3.335 # C_epoxy-water [DOI: 10.1021/acs.jpcc.5b07345]
pair_coeff  4   7   lj/cut/coul/long 0.1475038606  3.035 # O_epoxy-water
pair_coeff  1   4   lj/cut/coul/long 0.1757711359  3.225 # O_epoxy-C
pair_coeff  2   4   lj/cut/coul/long 0.0961172307  3.200 # O_epoxy-C_epoxy
pair_coeff  3   4   lj/cut/coul/long 0.1757711359  3.225 # O_epoxy-C_hydroxy
pair_coeff  4   4   lj/cut/coul/long 0.1400539999  2.900 # O_epoxy-O_epoxy
pair_coeff  4   5   lj/cut/coul/long 0.1542700106  2.985 # O_epoxy-O_hydroxy


# hydroxy ------------------------------------

set type 3 charge   0.150 # C_hydroxy
  34 settings made for charge
set type 5 charge  -0.585 # O_hydroxy
  34 settings made for charge
set type 6 charge   0.435 # H_hydroxy
  34 settings made for charge

pair_coeff  3   7   lj/cut/coul/long 0.1043009801  3.360 # C_hydroxy-water
pair_coeff  5   7   lj/cut/coul/long 0.1624760602  3.120 # O_hydroxy-water
pair_coeff  1   5   lj/cut/coul/long 0.1090853706  3.310 # O_hydroxy-C
pair_coeff  2   5   lj/cut/coul/long 0.1058734932  3.285 # O_hydroxy-C_epoxy
pair_coeff  3   5   lj/cut/coul/long 0.1090853706  3.310 # O_hydroxy-C_hydroxy
pair_coeff  5   5   lj/cut/coul/long 0.1699290000  3.070 # O_hydroxy-O_hydroxy


# water (SPC/E) ------------------------------

set type 7 charge -0.834 # Ow
  378 settings made for charge
set type 8 charge  0.417 # Hw
  756 settings made for charge

pair_coeff  7   7   lj/cut/coul/long 0.155300000  3.166 # water-water
pair_coeff  1   7   lj/cut/coul/long 0.092672000  3.283 # water-C
#pair_coeff 1   7   0.104300980  3.360 # water-C


# graphene ------------------------------------

pair_coeff  *   *   airebo CH.airebo.real C C C NULL NULL NULL NULL NULL NULL NULL NULL NULL


# ions ----------------------------------------

set type 9  charge -0.4166 # O (H3O+)
  0 settings made for charge
set type 10 charge  0.4722 # H (H3O+)
  0 settings made for charge
set type 11 charge -1.3500 # O (OH-)
  0 settings made for charge
set type 12 charge  0.3500 # H (OH-)
  0 settings made for charge

# H3O+
#pair_coeff		5   5  0.147467 3.050 #O-O
# OH-
#pair_coeff		7   7  0.149618 3.840 #O-O

pair_coeff	9   11   lj/cut/coul/long 0.1485390000  3.445 # H3O-OH
pair_coeff	7   9    lj/cut/coul/long 0.1513320000  3.108 # H3O-water
pair_coeff	7   11   lj/cut/coul/long 0.1524330000  3.503 # OH-water
pair_coeff	1*3 9    lj/cut/coul/long 0.0903050000  3.225 # H3O-C !!!
pair_coeff	1*3	11   lj/cut/coul/long 0.0909610000  3.620 # OH-C  !!!
pair_coeff  4   9    lj/cut/coul/long 0.1437127107  2.975 # H3O-O_epoxy
pair_coeff  5   9    lj/cut/coul/long 0.1583000943  3.060 # H3O-O_hydroxy
pair_coeff  4   11   lj/cut/coul/long 0.1447570356  3.412 # OH-O_epoxy
pair_coeff  5   11   lj/cut/coul/long 0.1594504221  3.455 # OH-O_hydroxy


# =========================================

kspace_style pppm 1.0e-4

# bonds/angles/impropers --------

bond_style harmonic
bond_coeff 1 320 1.410 # epoxy
bond_coeff 2 450 1.364 # hydroxy C-O
bond_coeff 3 553 0.945 # hydroxy O-H
bond_coeff 4 450 1.000 # water

angle_style harmonic
angle_coeff 1 60 109.50  # epoxy
angle_coeff 2 35 113.00  # hydroxy C-O-H
angle_coeff 3 70 120.00  # hydroxy C-C-O
angle_coeff 4 55 109.47  # water

dihedral_style opls
dihedral_coeff 1  1.6820005  0 -1.6820005 0 # hydroxy C-C-O-H

fix shake water shake 0.0001 20 0 b 4 a 4 # only water
  0 = # of size 2 clusters
  0 = # of size 3 clusters
  0 = # of size 4 clusters
  378 = # of frozen angles

########################################################

#neighbor       2.0 nsq
neigh_modify    every 5 delay 0 check no

####################

region reg block INF INF INF INF 2 INF
group  grp region reg
1864 atoms in group grp
group  upper intersect graphene grp
680 atoms in group upper
group  lower subtract  graphene upper
680 atoms in group lower

compute hi upper com
compute lo lower com
variable h equal (c_hi[3]-c_lo[3])

####################

variable dl equal 3.676
variable vp equal (lx*ly*(v_h-v_dl)) #effective volume
variable den equal ((mass(functionals)/2.+mass(fluid))/v_vp*1.66054) #gr/cm3

####################

#restart 500000 res

####################

group mov   union fluid substrate
2596 atoms in group mov

compute Tf fluid      temp
compute Ts substrate  temp
compute T  mov        temp

############################ stress-tensor

compute     peratom fluid stress/atom Tf
compute     sxx fluid   reduce sum c_peratom[1]
compute     syy fluid   reduce sum c_peratom[2]
compute     szz fluid   reduce sum c_peratom[3]
compute     sxy fluid   reduce sum c_peratom[4]
compute     sxz fluid   reduce sum c_peratom[5]
compute     syz fluid   reduce sum c_peratom[6]

variable    pxy  equal   -c_sxy/(v_vp)
variable    pxz  equal   -c_sxz/(v_vp)
variable    pyz  equal   -c_syz/(v_vp)
variable    pzz  equal   -c_szz/(v_vp)
variable    plat equal  -(c_sxx+c_syy)/(2*v_vp)
variable    ptot equal  -(c_sxx+c_syy+c_szz)/(3*v_vp)

############################ applied shear force on solid interface

compute     force1 lower group/group fluid
variable     F1x equal c_force1[1]
variable     F1y equal c_force1[2]

compute     force2 upper group/group fluid
variable     F2x equal c_force2[1]
variable     F2y equal c_force2[2]

####################

thermo          500
thermo_style 	custom step c_T c_Tf c_Ts etotal v_den v_h

dump           1 all xyz 1000 dump.xyz
dump_modify    1 sort id element C C C O1 O2 H2 Ow Hw O H O H

group graphene type 1 2 3
1360 atoms in group graphene
group epoxy    type 4
34 atoms in group epoxy
group hydroxy  type 5 6
68 atoms in group hydroxy
group water    type 7 8
1134 atoms in group water
group h3o      type 9 10
0 atoms in group h3o
group oh       type 11 12
0 atoms in group oh

#################### relaxing

fix             u upper recenter INIT INIT NULL
fix             l lower recenter INIT INIT INIT

# --------------

timestep        0.1
velocity        water create 1 2222 dist gaussian mom yes rot yes
fix             rigid ions rigid/nvt/small molecule temp 1 1 100
0 rigid bodies with 0 atoms
  0 = max distance from body owner to body atom
fix             rlx1  water     nvt temp 1 1 100
fix             rlx2  substrate nvt temp 1 1 100

run             1000
PPPM initialization ...
  using 12-bit tables for long-range coulomb (../kspace.cpp:321)
  G vector (1/distance) = 0.233447
  grid = 16 16 24
  stencil order = 5
  estimated absolute RMS force accuracy = 0.0297027
  estimated relative force accuracy = 8.94489e-05
  using double precision FFTs
  3d grid and FFT values/proc = 7497 3072
WARNING: Using a manybody potential with bonds/angles/dihedrals and special_bond exclusions (../pair.cpp:218)
WARNING: Fix recenter should come after all other integration fixes (../fix_recenter.cpp:131)
WARNING: Fix recenter should come after all other integration fixes (../fix_recenter.cpp:131)
Neighbor list info ...
  update every 5 steps, delay 0 steps, check no
  max neighbors/atom: 2000, page size: 100000
  master list distance cutoff = 12.2
  ghost atom cutoff = 12.2
  binsize = 6.1, bins = 7 7 12
  6 neighbor lists, perpetual/occasional/extra = 4 2 0
  (1) pair lj/cut/coul/long, perpetual, skip from (5)
      attributes: half, newton on
      pair build: skip
      stencil: none
      bin: none
  (2) pair airebo, perpetual, skip from (6)
      attributes: full, newton on, ghost
      pair build: skip/ghost
      stencil: none
      bin: none
  (3) compute group/group, occasional, copy from (5)
      attributes: half, newton on
      pair build: copy
      stencil: none
      bin: none
  (4) compute group/group, occasional, copy from (5)
      attributes: half, newton on
      pair build: copy
      stencil: none
      bin: none
  (5) neighbor class addition, perpetual
      attributes: half, newton on
      pair build: half/bin/newton
      stencil: half/bin/3d/newton
      bin: standard
  (6) neighbor class addition, perpetual
      attributes: full, newton on, ghost
      pair build: full/bin/ghost
      stencil: full/ghost/bin/3d
      bin: standard
Per MPI rank memory allocation (min/avg/max) = 22.2 | 25.19 | 28.17 Mbytes
Step c_T c_Tf c_Ts TotEng v_den v_h 
       0   0.34055029            1            0   -224145.05    0.6113086           15 
     500    88.221337     73.23825    96.024521   -240319.55   0.61120722    15.001878 
    1000    26.054948     35.85617    21.007811   -241376.52   0.61134097      14.9994 
Loop time of 38.1426 on 2 procs for 1000 steps with 2596 atoms

Performance: 0.227 ns/day, 105.952 hours/ns, 26.217 timesteps/s
100.0% CPU use with 2 MPI tasks x no OpenMP threads

MPI task timing breakdown:
Section |  min time  |  avg time  |  max time  |%varavg| %total
---------------------------------------------------------------
Pair    | 4.4685     | 13.074     | 21.679     | 238.0 | 34.28
Bond    | 0.024949   | 0.044031   | 0.063113   |   9.1 |  0.12
Kspace  | 2.044      | 10.39      | 18.737     | 258.9 | 27.24
Neigh   | 13.906     | 13.907     | 13.907     |   0.0 | 36.46
Comm    | 0.12305    | 0.42346    | 0.72387    |  46.2 |  1.11
Output  | 0.0020828  | 0.0020939  | 0.002105   |   0.0 |  0.01
Modify  | 0.26835    | 0.28578    | 0.30321    |   3.3 |  0.75
Other   |            | 0.01616    |            |       |  0.04

Nlocal:    1298 ave 2232 max 364 min
Histogram: 1 0 0 0 0 0 0 0 0 1
Nghost:    4093 ave 4099 max 4087 min
Histogram: 1 0 0 0 0 0 0 0 0 1
Neighs:    207452 ave 409889 max 5015 min
Histogram: 1 0 0 0 0 0 0 0 0 1
FullNghs:  118661 ave 178344 max 58978 min
Histogram: 1 0 0 0 0 0 0 0 0 1

Total # of neighbors = 468867
Ave neighs/atom = 180.611
Ave special neighs/atom = 1.03082
Neighbor list builds = 200
Dangerous builds not checked
unfix           rlx1
unfix           rlx2
unfix 			rigid
#write_data      rlx.lmp

# --------------

timestep        1.0
velocity        water create 1 2222 dist gaussian mom yes rot yes
fix             rigid ions rigid/nvt/small molecule temp 300 300 100
0 rigid bodies with 0 atoms
  0 = max distance from body owner to body atom
fix             rlx1  water     nvt temp 300 300 100
fix             rlx2  substrate nvt temp 300 300 100

run             500000
PPPM initialization ...
  using 12-bit tables for long-range coulomb (../kspace.cpp:321)
  G vector (1/distance) = 0.233447
  grid = 16 16 24
  stencil order = 5
  estimated absolute RMS force accuracy = 0.0297027
  estimated relative force accuracy = 8.94489e-05
  using double precision FFTs
  3d grid and FFT values/proc = 7497 3072
WARNING: Using a manybody potential with bonds/angles/dihedrals and special_bond exclusions (../pair.cpp:218)
WARNING: Fix recenter should come after all other integration fixes (../fix_recenter.cpp:131)
WARNING: Fix recenter should come after all other integration fixes (../fix_recenter.cpp:131)
Neighbor list info ...
  update every 5 steps, delay 0 steps, check no
  max neighbors/atom: 2000, page size: 100000
  master list distance cutoff = 12.2
  ghost atom cutoff = 12.2
  binsize = 6.1, bins = 7 7 12
  6 neighbor lists, perpetual/occasional/extra = 4 2 0
  (1) pair lj/cut/coul/long, perpetual, skip from (5)
      attributes: half, newton on
      pair build: skip
      stencil: none
      bin: none
  (2) pair airebo, perpetual, skip from (6)
      attributes: full, newton on, ghost
      pair build: skip/ghost
      stencil: none
      bin: none
  (3) compute group/group, occasional, copy from (5)
      attributes: half, newton on
      pair build: copy
      stencil: none
      bin: none
  (4) compute group/group, occasional, copy from (5)
      attributes: half, newton on
      pair build: copy
      stencil: none
      bin: none
  (5) neighbor class addition, perpetual
      attributes: half, newton on
      pair build: half/bin/newton
      stencil: half/bin/3d/newton
      bin: standard
  (6) neighbor class addition, perpetual
      attributes: full, newton on, ghost
      pair build: full/bin/ghost
      stencil: full/ghost/bin/3d
      bin: standard
Per MPI rank memory allocation (min/avg/max) = 21.91 | 25.91 | 29.91 Mbytes
Step c_T c_Tf c_Ts TotEng v_den v_h 
    1000     14.18467            1    21.007811   -241454.97   0.61134097      14.9994 
    1500    167.81958    299.73732    99.763406   -240367.16   0.63842543    14.519018 
    2000    286.92109    298.02893    281.37728   -239057.11   0.70812839    13.451711 
    2500    277.69974    297.90232    267.44974   -239186.05   0.79874344    12.342686 
    3000    293.24294    297.92712    291.02301   -238986.26   0.86923968    11.639809 
    3500    292.53348    291.00696    293.52257   -238887.64   0.89143615    11.441513 
    4000    303.79089    308.24645    301.69632   -238805.14   0.88282781    11.517233 
    4500    302.55247    299.97241    304.09285   -238866.16   0.86107076    11.715361 
    5000     301.7242    289.53942    308.22744   -238907.08   0.86205911    11.706144 
    5500    298.44617    296.44854    299.68276   -238973.22   0.87130919    11.620893 
    6000    289.94533    288.27377     291.0076    -238977.4    0.8805823    11.537228 
    6500    306.09633    298.71047    310.12263   -238969.78   0.90869585    11.294015 
    7000     310.9491    312.27497    310.47677   -238922.48   0.93776519    11.057868 
    7500    312.42268    306.86653    315.50777   -238915.95   0.96470217    10.851747 
    8000    300.77942    299.30641     301.7465   -239009.01   0.98059316     10.73546 
    8500    296.25615    296.06502     296.5577    -239114.5   0.97429149    10.781121 
    9000    302.44736    309.27585    299.12562    -238997.8   0.96270754    10.866614 
    9500    291.81701    274.53947    300.94526    -239091.3   0.95950488    10.890615 
   10000    313.32632     308.7962    315.88181   -238967.14   0.97491241    10.776595 
   10500    305.78283    313.84899    301.82378   -239037.88   0.99583715    10.627396 
   11000    307.67245    313.02559     305.1167    -239051.3    1.0065053    10.553717 
   11500    299.37612    289.56779    304.64968   -239053.53    1.0015768     10.58756 
   12000    305.21492    302.99892    306.56898   -239094.73   0.99627581    10.624336 
   12500    304.52078    318.60811    297.44931    -239066.4   0.99518136    10.631977 
   13000    295.16311    279.77462    303.31744   -239166.93   0.99795718    10.612629 
   13500    293.04735     290.6144    294.50521   -239185.52    1.0102636    10.528131 
   14000      300.234    300.62826    300.23576   -239120.83    1.0139662     10.50311 
   14500    302.47605    299.56711    304.18634   -239014.78    1.0118482      10.5174 
   15000    300.29716    304.59121    298.28366   -239043.41    0.9970562    10.618897 
   15500    295.22326     303.4126    291.19333   -239117.79    1.0003602    10.595966 
   16000    296.70814    301.23766    294.57051   -239081.34    1.0066876    10.552472 
   16500    296.30783    300.66076    294.26118   -239156.64    1.0182348    10.474489 
   17000    286.68051    284.27958    288.11746   -239176.23    1.0245701    10.432452 
   17500    303.75624    305.40946    303.10981   -239029.49    1.0232341    10.441274 
   18000    305.45116    299.77748    308.59221   -238955.89    1.0172556    10.481034 
   18500    300.01031     287.0159    306.93077   -239057.02    1.0226884    10.444884 
   19000    309.02699    305.77212    310.92053   -239006.87    1.0299382    10.397237 
   19500    298.32039    292.04026    301.76996   -239091.11    1.0290381    10.403116 
   20000    306.19527    312.72849    303.02868   -238994.06      1.01234    10.514076 
   20500     309.2282    310.20714    308.93397   -238965.78    1.0076001    10.546244 
   21000    302.28578    320.12268    293.27513   -239053.33    1.0111216    10.522317 
   21500    294.66708    296.33387    294.00742   -239087.44    1.0193621    10.466971 
   22000    307.67106    311.27283    306.02036   -239079.68    1.0217691    10.450974 
   22500    305.64827    300.96193    308.27923   -239096.69    1.0334463    10.374421 
   23000    306.25746    307.41699    305.86787    -239089.8    1.0302833    10.394985 
   23500    311.58855    318.00436    308.48633   -239094.25     1.014954    10.496465 
   24000    304.71419    291.68218    311.65729   -239155.67    1.0078907    10.544263 
   24500    295.84316    287.88185    300.15981   -239252.27    1.0249761    10.429776 
   25000    298.26769    307.91583    293.48599   -239259.96    1.0359452    10.358264 
   25500    303.25872    310.34174      299.806   -239173.73    1.0384888    10.341896 
   26000    301.50395    295.99468    304.55734   -239149.74    1.0259154    10.423592 
   26500    301.66453    305.35328    299.96477   -239097.11    1.0191503    10.468382 
   27000    310.70976    299.63287    316.64663   -239092.36    1.0319984    10.383819 
   27500    301.47132    298.34785    303.29178   -239135.02    1.0469693    10.287902 
   28000    299.97704    305.59569    297.27882   -239163.84    1.0535394    10.246669 
   28500    303.47455     305.5587    302.60525   -239177.84    1.0441281    10.305894 
   29000    305.17337    303.13906    306.43352   -239176.78    1.0256977    10.425024 
   29500    303.12239    303.77729    302.99144   -239150.09    1.0143289    10.500669 
   30000    297.11101    296.84037    297.45423    -239268.7     1.021323    10.453933 
   30500     301.1706    310.08637    296.76934   -239273.39    1.0410576    10.325448 
   31000    301.57475    310.96817    296.92694    -239264.6    1.0451839    10.299197 
   31500    301.10346    304.79748     299.4006   -239294.29     1.040174    10.331097 
   32000    299.69951     305.6781     296.8151   -239294.28    1.0330555    10.376955 
   32500    298.73975    300.02405    298.28054   -239274.52    1.0263501    10.420734 
   33000    299.20337      297.738    300.16543   -239257.25    1.0362775     10.35612 
   33500    296.53225    294.75703     297.6526   -239227.69    1.0443193     10.30468 
   34000    305.42438    309.11048    303.72857   -239171.33    1.0466939    10.289642 
   34500    299.31037    289.96932     304.3424   -239223.35    1.0396648    10.334356 
   35000    287.71035    289.65558    286.90205   -239272.41    1.0178654    10.476957 
   35500    304.23688    309.93491    301.50054   -239120.17    1.0053167    10.561849 
   36000    309.20793    306.73864    310.69563   -239103.44    1.0053211    10.561818 
   36500    303.08784    301.91924     303.8992   -239166.31    1.0081567    10.542451 
   37000    306.81441    305.77513    307.56149   -239102.36    1.0026779     10.57997 
   37500    305.74731    294.19207    311.92798   -239118.41    1.0060263    10.556991 
   38000    302.53127    301.41369    303.31587   -239195.27    1.0206284    10.458545 
   38500    294.91439    281.10461    302.25272    -239330.4    1.0535281     10.24674 
   39000    295.20347    296.68966     294.6375   -239275.55    1.0610136    10.200383 
   39500    299.56586     298.4422    300.35157   -239196.92    1.0345765    10.367104 
   40000    306.20961    298.01527    310.65378   -239188.67    1.0175121    10.479318 
   40500    301.30469    306.68589    298.73009   -239138.27   0.99882785    10.606582 
   41000     302.2344    296.15697    305.58189   -239162.15    1.0130271    10.509438 
   41500    302.30421     306.4943    300.34581   -239205.25    1.0279952     10.40994 
   42000    298.87618    300.15412    298.42035   -239250.48     1.027765    10.411449 
   42500    301.52046    304.62082    300.12466   -239202.02     1.010374    10.527382 
   43000    301.21335    299.07396    302.52508   -239132.55    1.0012174    10.590042 
   43500    294.21464    294.65186    294.19008   -239197.95   0.99933984    10.603032 
   44000    299.97011    305.13131    297.50828   -239183.15    1.0134922    10.506303 
   44500    297.26751    295.27087    298.50278   -239232.68    1.0287965    10.404696 
   45000    298.43371    292.91238    301.49123   -239198.69    1.0363846     10.35543 
   45500    299.81447    292.03998    304.03729   -239155.65    1.0292199    10.401928 
   46000    306.64569    300.20679      310.183   -239150.61    1.0304978    10.393587 
   46500    301.68274    308.23965    298.50082   -239167.59    1.0331342    10.376445 
   47000    298.04363    304.30921    295.00976   -239173.28    1.0218031    10.450748 
   47500    303.88481    296.92936    307.68717   -239103.59    1.0117925    10.517777 
   48000    306.25123    294.82661    312.36474   -239093.38    1.0129485    10.509969 
   48500    303.39039    297.23024    306.78144   -239114.54    1.0249487    10.429956 
   49000    303.60883    300.48815    305.42932   -239093.32    1.0327886    10.378687 
   49500    297.81673    294.70596    299.62813    -239058.8    1.0217834    10.450879 
   50000    297.84979    302.53872    295.63055   -239029.81   0.99634554    10.623849 
   50500    298.29172    293.48122     300.9818   -239084.88    1.0011917    10.590219 
   51000    303.05449    302.05108    303.78046   -239091.89    1.0303237    10.394722 
   51500    303.81088    301.02332    305.45935   -239150.33    1.0582513    10.217413 
   52000    300.15472    296.80233    302.09257   -239119.94    1.0408357    10.326866 
   52500    294.08812    290.08629    296.35744   -239120.15    1.0185206    10.472582 
   53000    291.27297    287.88532    293.22297   -239118.01     1.005334     10.56173 
   53500    298.91921    302.36901    297.34107   -239094.64    1.0102271    10.528379 
   54000    287.43609    276.22252    293.42767   -239179.84    1.0255532    10.425975 
   54500    302.26378    306.37113    300.34811   -239094.55    1.0488517    10.276036 
   55000    297.66589    308.93849    292.04429      -239140    1.0485354    10.278027 
   55500    303.43183    314.42141    297.96044   -239087.69    1.0295536    10.399748 
   56000    309.31785    317.45256     305.3258   -239095.27     1.024062    10.435804 
   56500    306.07104    307.20573    305.69417   -239067.64    1.0220122    10.449362 
   57000    302.10504    312.64052    296.86741   -239099.09    1.0293383    10.401154 
   57500    295.57243    304.03856    291.39971   -239150.82    1.0438346    10.307758 
   58000    296.88021    296.73655    297.15766   -239201.02    1.0378486    10.346008 
   58500    298.69984    288.10585    304.37894   -239147.92    1.0108412    10.524216 
   59000    303.73416    309.20379    301.11552   -239051.08     1.002037    10.584386 
   59500    305.69481    309.76651    303.79991   -239026.15    0.9985487     10.60852 
   60000    291.91988    288.38629    293.94575   -239168.48   0.99987984    10.599291 
   60500    296.24997    298.19952    295.44527   -239088.17    1.0124344    10.513439 
   61000    294.90677    299.00703    292.98973   -239109.83    1.0293426    10.401126 
   61500    293.98236    277.54579    302.67749   -239121.29    1.0316036    10.386386 
   62000    293.84136    295.95552    292.94994   -239129.96    1.0219256    10.449936 
   62500     296.9342    291.56588    299.91163   -239095.18   0.99251696     10.65065 
   63000     301.1746     302.9244    300.47649   -239018.66   0.98072791     10.73449 
   63500     297.6123    288.47081    302.54005   -239042.31   0.99396925     10.64046 
   64000    304.00522    304.47039    303.97291   -239002.83    1.0194142    10.466624 
   64500    299.77026    297.33477    301.23403    -239078.4     1.023712    10.438116 
   65000     305.1965    299.44497    308.37762   -239086.77    1.0115259     10.51958 
   65500    306.80238    303.16009    308.89459   -238973.25    1.0074368    10.547358 
   66000    293.92797    294.27683    293.94887   -239162.48    1.0167335    10.484528 
   66500    301.99784    307.79073    299.21095   -239209.52    1.0258799    10.423825 
   67000    296.87231     292.6082    299.27908   -239214.15      1.03722    10.350051 
   67500    297.15108    298.86383    296.46937   -239150.29    1.0315545    10.386706 
   68000    297.53627    298.76938    297.10269      -239159    1.0103012    10.527876 
   68500     301.5518    300.68522    302.20603   -239091.32    0.9959064    10.626913 
   69000     306.5339    292.22172     314.1398   -239057.67    0.9833494    10.715673 
   69500    304.02663     303.3264    304.59658   -239170.27   0.98090784    10.733196 
   70000    302.10261    308.99571    298.74725    -239183.9   0.99176083    10.655968 
   70500    298.32137    302.29492    296.47216   -239148.83    1.0085795    10.539572 
   71000    306.72252    305.61089    307.50691   -239128.22    1.0170441    10.482449 
   71500    304.44465    292.60769       310.77   -239144.04    1.0107686    10.524707 
   72000    295.42587    288.29702    299.31205    -239224.3    1.0062776    10.555273 
   72500    297.67188    301.03233    296.13904    -239227.3   0.99233781    10.651909 
   73000    295.93545    299.34516    294.37597   -239230.31    0.9956537    10.628677 
   73500    287.24565    290.02247    286.00729   -239263.53   0.99567807    10.628507 
   74000    301.10556    309.00958     297.2271   -239185.67    1.0026562     10.58012 
   74500     296.4983    292.48578    298.77479   -239199.61    1.0110814    10.522589 
   75000    303.96496    286.07986    313.41548   -239111.81    1.0131455     10.50864 
   75500     309.3632    307.70251    310.43314   -239054.53    1.0108077    10.524443 
   76000    309.35253    308.71374    309.89438   -239110.85    1.0058818    10.557981 
   76500    308.81247    313.34095    306.68366   -239162.59     1.001804    10.585993 
   77000    296.99147    288.62429    301.51865    -239211.2    1.0054372    10.561024 
   77500     296.3424    296.83165     296.2924   -239179.07    1.0197892    10.464127 
   78000    296.66506    295.48003     297.4805   -239311.46    1.0395995    10.334774 
   78500    292.85867    285.60069    296.80982   -239306.35    1.0456656    10.296146 
   79000    297.31347    293.28148    299.60058   -239246.31    1.0339552    10.371124 
   79500    308.78586    304.80331    311.05527   -239124.03    1.0274789    10.413324 
   80000     304.8637     297.2672    308.99801   -239178.38    1.0281132    10.409168 
   80500    306.38166    313.98205    302.66372   -239064.76    1.0243115    10.434157 
   81000    296.87408    298.12763    296.42949   -239165.06    1.0167883    10.484161 
   81500    295.77877    296.60181     295.5559   -239228.94    1.0068147    10.551603 
   82000    300.01699    316.94794    291.47295   -239242.42    1.0089568    10.537006 
   82500    293.10581    307.32718    285.95727   -239283.63    1.0184156    10.473283 
   83000    292.46889    291.65446    293.08995   -239317.03    1.0306454    10.392625 
   83500     297.1022    298.56977    296.54717   -239248.72    1.0298153    10.398039 
   84000    298.52532    306.52392    294.59622   -239256.23    1.0291202    10.402579 
   84500    302.87575    299.85355    304.64483   -239197.47    1.0267874    10.417862 
   85000    307.35188     315.7336    303.23084   -239219.19    1.0261068    10.422333 
   85500    293.80949    299.49333    291.07336   -239326.26    1.0289267    10.403844 
   86000    291.22347    282.28115    296.04391    -239327.3    1.0411867    10.324624 
   86500    292.22106     310.7048    282.86925   -239315.81    1.0436801     10.30874 
   87000    296.78559    289.93912    300.52677   -239294.74    1.0473566    10.285457 
   87500    295.25325    299.80707    293.10207   -239290.44    1.0417898    10.320775 
   88000    291.80767    285.56313    295.23439   -239317.68    1.0239647    10.436446 
   88500    287.77355    276.79584    293.64346   -239319.41    1.0109964    10.523165 
   89000    303.86973     315.5741    298.02925   -239145.18    1.0098188    10.531149 
   89500    304.45097     301.4553    306.20742   -239188.58    1.0156974    10.491473 
   90000    293.22821     301.8527    288.97204   -239252.19    1.0380218    10.344895 
   90500    297.17158    304.53873    293.56787   -239247.49    1.0507241    10.264274 
   91000    293.17454    297.01897    291.38852   -239216.23    1.0486506    10.277302 
   91500    302.10301    312.72227    296.82208   -239137.44    1.0361787    10.356757 
   92000    299.98013    289.56356    305.56842   -239198.92    1.0224562    10.446421 
   92500    293.45384    293.81897    293.46602   -239183.22    1.0282803    10.408074 
   93000    293.96141    290.24055    296.08544   -239133.59    1.0333679     10.37493 
   93500    302.94594     321.7343    293.44405   -239114.68    1.0405099    10.328948 
   94000    290.67857    286.88949    292.83561   -239203.94    1.0285217    10.406493 
   94500     302.9361    290.86464    309.38162   -239155.09    1.0187768    10.470873 
   95000     295.2358    293.83523    296.16165   -239105.97    1.0148138    10.497407 
   95500    297.29648    305.81516    293.09777   -239144.77    1.0065753    10.553239 
   96000    296.22765    300.53752     294.2032   -239159.33    1.0155406    10.492526 
   96500    304.42229    314.09535    299.63191   -239105.39    1.0168688    10.483622 
   97000     307.4491    294.53833    314.33142   -239122.08    1.0172383     10.48115 
   97500    313.65569    314.88309    313.23609    -239051.4     1.030064    10.396416 
   98000    305.31343    312.23455    301.94579   -239100.22     1.034893    10.365057 
   98500    303.32883    305.94616    302.18389   -239136.51    1.0387937     10.33994 
   99000    302.29947    296.48112    305.51313   -239195.24    1.0276731    10.412051 
   99500    300.72362     294.4561    304.16832   -239154.83    1.0104251    10.527036 
  100000    299.29895    310.37588    293.77959   -239119.54    1.0001457     10.59745 
  100500    299.53958    302.48268     298.2237   -239142.74   0.99337056    10.644657 
  101000    306.78611    304.64792    308.10104   -239123.51    1.0000612    10.598035 
  101500    295.30735    292.05044    297.19255   -239183.66    1.0146183    10.498722 
  102000    302.36936    296.80075    305.45401   -239139.24    1.0273507    10.414165 
  102500     297.5698    286.19266    303.65284    -239280.5    1.0403198    10.330164 
  103000    299.10551    290.92954    303.53532   -239200.24    1.0503541    10.266595 
  103500    304.10445    308.87118     301.8493   -239195.14    1.0399723    10.332387 
  104000    306.87299    304.09555    308.51833   -239169.68    1.0277512     10.41154 
  104500    306.02356    299.75043    309.47479   -239121.29    1.0190707    10.468913 
  105000    300.11433    287.36601    306.90768   -239167.79    1.0250377     10.42937 
  105500    305.22135    302.63928    306.76459   -239158.16    1.0299615    10.397085 
  106000    297.35428     284.5969    304.15043   -239236.28     1.026747    10.418127 
  106500    311.50701     315.1117    309.85743   -239116.82    1.0249319    10.430067 
  107000    302.14115    306.61911    300.03388   -239195.45    1.0319865    10.383897 
  107500    301.39003    291.01181    306.95946   -239207.97    1.0234121    10.440097 
  108000    299.86556     302.6699    298.62161   -239221.06    1.0082459    10.541844 
  108500    297.84575    295.09398    299.47164   -239199.66   0.98532089    10.701588 
  109000    294.75689    300.91277    291.77748   -239208.63   0.98199561    10.725378 
  109500    297.96925    295.06219    299.67548   -239237.37   0.98651812    10.693062 
  110000    299.70078     306.2768    296.50763    -239204.5    1.0004807    10.595133 
  110500    296.10332    292.78553    298.02053   -239239.81   0.99663725    10.621816 
  111000    289.05393    285.63184     291.0202   -239269.76   0.98469409     10.70606 
  111500    297.83851    303.54123    295.09538   -239249.64   0.99613604    10.625311 
  112000    302.82328    309.42774    299.61757    -239279.1    1.0099987    10.529928 
  112500    299.69694    297.48029    301.04757   -239288.78    1.0171884    10.481483 
  113000    307.14959    303.30602    309.34605   -239177.58    1.0185183    10.472597 
  113500    304.02249     293.9615     309.4298   -239269.84    1.0209419    10.456463 
  114000     305.2156    303.52839     306.2964   -239181.55    1.0237827    10.437649 
  114500    308.59923     312.1265    306.98767   -239168.91    1.0195662    10.465612 
  115000    294.95679    293.95957    295.67401   -239246.56    1.0071776    10.549126 
  115500    309.32147    320.65192    303.67796   -239208.58    1.0026018    10.580495 
  116000     306.0596    298.70367     310.0704   -239207.49    1.0189649    10.469619 
  116500    294.47634    300.97551    291.31933   -239250.28    1.0256219    10.425523 
  117000    299.59402    294.89997    302.22482   -239203.89    1.0170133    10.482655 
  117500    307.00707     310.0851    305.62658   -239282.78    1.0092826    10.534792 
  118000    295.55148    291.70947     297.7392   -239317.89    1.0160382    10.489187 
  118500    303.49778    297.02187    307.05207   -239217.04    1.0263461    10.420761 
  119000    302.78766    293.99934    307.53644   -239273.28    1.0488302    10.276171 
  119500    301.92829    294.57563    305.93458   -239282.58     1.063572    10.184688 
  120000    297.84128    304.71416    294.49345   -239268.86    1.0491974    10.273861 
  120500    294.86414     294.6959    295.15291   -239305.09    1.0094454    10.533685 
  121000    291.10588    297.62823    287.93458   -239322.07   0.99617273    10.625055 
  121500    303.47716    309.20957    300.72255   -239212.43    1.0110965    10.522487 
  122000    299.37723    301.26785    298.60512   -239236.48    1.0410386    10.325569 
  122500    304.25198    299.99735    306.65889   -239251.36    1.0592574    10.211199 
  123000    300.09952    305.93754    297.28802   -239243.36    1.0519331    10.256702 
  123500    301.21132    285.14868    309.71817   -239220.35    1.0386937    10.340581 
  124000    303.34282    304.36217    303.02367   -239186.64    1.0314655    10.387285 
  124500    303.71106    297.45938    307.14962   -239230.62    1.0339995    10.370837 
  125000     289.4795    281.10052    294.00764   -239328.52    1.0537506    10.245352 
  125500     296.1572    299.59608     294.5828   -239299.71    1.0605954    10.202955 
  126000    291.58972    293.54899    290.77681   -239304.11    1.0318952     10.38449 
  126500     302.5701    311.71628    298.05074   -239222.46    1.0156011     10.49212 
  127000    310.56222    318.85815     306.4877   -239216.16    1.0104827    10.526646 
  127500    306.22895    301.40389      308.932   -239239.07    1.0289676    10.403577 
  128000    306.60135    309.61743    305.25258   -239230.74    1.0394143    10.335961 
  128500    302.35242    299.10783    304.23608   -239253.04    1.0373744    10.349057 
  129000    301.86399    308.37235    298.70729   -239208.12    1.0388848    10.339355 
  129500    301.24868    290.20686    307.16095   -239269.05    1.0439453    10.307055 
  130000    297.12655    298.99175    296.36605   -239218.91    1.0360708    10.357453 
  130500    300.02079    310.06493    295.03564   -239208.71    1.0259017    10.423682 
  131000    301.56459    303.48534    300.77841   -239214.61    1.0259942    10.423074 
  131500    295.41916    289.19845    298.83603   -239278.57    1.0270965    10.415833 
  132000    296.37198    284.37745    302.77324   -239248.05    1.0231701    10.441697 
  132500    306.72209    308.88863    305.81243   -239137.66    1.0160573    10.489059 
  133000    305.37414    304.34799    306.11344   -239149.69    1.0356688    10.360047 
  133500    287.18198    290.20572    285.81597   -239286.12    1.0535046    10.246886 
  134000    296.36486    294.83561    297.35798   -239183.63     1.058397    10.216513 
  134500    299.28368      300.213    299.00829   -239102.83    1.0368222    10.352611 
  135000     298.5223    285.92086    305.23866   -239166.86    1.0265757    10.419252 
  135500    308.93867     316.5938    305.19418   -239058.17    1.0399679    10.332416 
  136000    302.08642    307.77839    299.35175   -239063.11    1.0617424    10.195904 
  136500     295.7157    294.52914    296.53128    -239111.4    1.0612965    10.198644 
  137000    300.05876    290.49014     305.2089   -239011.79    1.0283943    10.407328 
  137500    299.39865    299.55855    299.52095   -238963.75    1.0027586    10.579415 
  138000    295.65239    284.79101    301.46758   -239048.07    1.0014617    10.588355 
  138500    290.22228    291.68183    289.66668   -239105.16    1.0213296    10.453889 
  139000    290.97771    287.88946    292.77279   -239084.83    1.0417903    10.320772 
  139500    303.07727    304.51649    302.54097   -239071.87    1.0433936    10.310561 
  140000    302.74726     300.5128    304.10918   -239028.61    1.0492238    10.273695 
  140500    303.73846    304.18885     303.7136   -238949.26    1.0340308    10.370635 
  141000    294.82839     299.0509    292.84812   -238998.93    1.0137573    10.504517 
  141500    304.68665    324.91115    294.44379   -238953.87   0.99807578    10.611805 
  142000     292.0077    293.67782    291.34451    -239042.8    0.9997362    10.600285 
  142500    299.51052     309.6312    294.48547   -239060.83    1.0285963    10.406006 
  143000    295.79839    287.78045    300.14428   -239134.93    1.0476546    10.283577 
  143500    295.52753    299.44102    293.70743   -239018.19    1.0433526    10.310822 
  144000    304.77853    294.07904     310.5163    -238991.5    1.0201751    10.461559 
  144500    303.84757    299.58756    306.25698   -238934.94    1.0020754    10.584121 
  145000    294.07717    297.77918    292.36537   -239091.52    1.0062628    10.555374 
  145500    295.37713    297.97827    294.23511   -239003.52    1.0114239     10.52027 
  146000    302.68035    314.50307    296.77791   -238964.46    1.0113538    10.520745 
  146500    300.32906     305.5985    297.81153   -238989.57    1.0157778    10.490934 
  147000    305.92148    302.03713    308.13819    -238865.1    1.0284524    10.406947 
  147500    307.87893    311.42861    306.25529   -238896.56    1.0425925    10.315659 
  148000    303.61809    307.36237    301.89097    -238995.9    1.0371398    10.350566 
  148500    285.84597    273.73267     292.3014   -239080.48    1.0332908     10.37543 
  149000    295.52011    293.98375    296.51632   -239060.27    1.0401201    10.331441 
  149500    305.47996    300.65084    308.18459   -238974.78    1.0571243    10.224387 
  150000    307.21923    321.80251    299.89331   -238948.07    1.0606064    10.202887 
  150500    296.39637    295.66579    296.97679   -238985.84    1.0507903    10.263859 
  151000    301.52294    316.65563    293.90922   -239017.97    1.0427885    10.314411 
  151500    288.75474    290.70048    287.94688   -239051.67    1.0283707    10.407482 
  152000    293.51422    301.93829    289.36182    -239046.4    1.0251565    10.428587 
  152500    291.76245    289.77924    292.98702   -239021.95    1.0214561     10.45305 
  153000      290.975    291.72596    290.78609   -238978.05     1.037628    10.347426 
  153500    306.22101    311.40073    303.75388   -238856.31    1.0393897    10.336119 
  154000    308.20378    312.80394    306.03752   -238967.54     1.017007    10.482697 
  154500    297.85639    298.34682    297.80682   -238934.89    1.0069216    10.550874 
  155000    291.25121     293.4575    290.31042   -238985.57    1.0125668    10.512545 
  155500    296.63511    304.65956    292.69136   -238911.35      1.01284    10.510701 
  156000    301.88299    300.30388    302.90565    -238893.6     1.002263    10.582828 
  156500    293.27255    300.84479    289.56018   -238961.44    1.0042889    10.568896 
  157000     298.4325    301.34704    297.13062   -239005.98    1.0124341    10.513442 
  157500     302.8904    298.38428    305.42635   -238901.99      1.01993     10.46319 
  158000    303.19475    311.63893    299.03859   -238925.33     1.018827    10.470538 
  158500    293.76934    294.59386    293.54433   -239004.67    1.0190635    10.468961 
  159000     298.0491    295.00496    299.82622   -238972.85    1.0182152     10.47462 
  159500    312.36138    306.95434    315.36937   -238926.84     1.018663    10.471632 
  160000     302.8682     306.3586    301.27177   -238943.66    1.0036353    10.573384 
  160500    288.40508    294.78278    285.30669   -239074.01    1.0009098    10.592166 
  161000    293.40666    282.04939    299.47658   -238997.67     1.004517     10.56733 
  161500    307.96729    315.93218    304.06208   -238897.09    1.0082582     10.54176 
  162000    307.02285    304.53792    308.51714   -238895.19    1.0111126    10.522378 
  162500    295.60509    296.53028    295.32931    -239022.1    1.0237467    10.437886 
  163000    297.56175    296.53639    298.29529   -238981.48    1.0374107    10.348823 
  163500    295.09951    286.03309    299.98674   -239078.95    1.0315304    10.386863 
  164000    299.91563    305.52837    297.22042   -238940.68    1.0260168    10.422925 
  164500    301.08035    304.16209    299.69389   -239005.31    1.0309111    10.390894 
  165000    299.56301    301.87719    298.57215   -238993.89    1.0229116    10.443407 
  165500     296.5511    293.73013    298.21187   -238934.68    1.0205515    10.459057 
  166000     302.5467    304.72254    301.62937   -238950.53    1.0332989    10.375377 
  166500    297.86168    294.50651     299.7994   -239042.02    1.0444996    10.303536 
  167000     294.7365    302.12918    291.11793   -238996.75    1.0438271    10.307806 
  167500    298.02128    301.89964    296.22105   -239015.99    1.0353947    10.361816 
  168000    296.10775     298.1632    295.24823   -239046.06    1.0295226     10.39995 
  168500    297.86318    300.96985    296.46163   -239011.18    1.0273335    10.414278 
  169000    301.61795    301.43027    301.92138   -238969.49     1.036478    10.354828 
  169500     300.8817    310.39751    296.17017   -238967.04    1.0360247    10.357751 
  170000    284.26747    287.15644    282.96911   -239110.87    1.0420845    10.318896 
  170500    291.79751    301.94233     286.7547   -239128.99    1.0441779    10.305578 
  171000    293.85948    293.98834    293.99402   -239049.94     1.053559    10.246547 
  171500    298.45894    297.60793    299.10301   -239019.13    1.0442729    10.304975 
  172000    302.35575    311.43989     297.8683      -238920    1.0221981     10.44813 
  172500    298.59321    295.85581    300.21219   -238915.92     1.005049    10.563682 
  173000     297.4768    310.09046    291.16205   -239005.36    1.0143786    10.500335 
  173500    304.45176    316.46241     298.4534   -238973.76    1.0298447    10.397847 
  174000    305.99452    298.21299    310.22521   -238982.27    1.0379515    10.345347 
  174500    296.57843    291.70172    299.30156   -239007.63    1.0353462    10.362129 
  175000    299.39002    299.24199    299.67144   -238945.52    1.0312195    10.388886 
  175500    297.63176    299.81421    296.70765    -238957.6    1.0249138    10.430186 
  176000    301.55834    302.97412    301.03311   -239041.67    1.0354611    10.361387 
  176500    294.98035    305.84455    289.56796   -239096.26    1.0533937    10.247578 
  177000     300.1272     297.2036    301.84345   -239078.18    1.0640409     10.18182 
  177500    294.73937    289.77906    297.50445   -239062.47    1.0580706     10.21853 
  178000    287.74284    291.91771    285.78235   -239033.59    1.0413235     10.32375 
  178500    295.10854    299.28155    293.15404   -239018.04    1.0275878     10.41261 
  179000    308.72096    318.65618    303.79806   -238951.95    1.0341035    10.370164 
  179500    304.89711    303.37747    305.89111   -238985.81    1.0425453     10.31596 
  180000    296.66557    298.17522    296.08849   -239029.69    1.0513406    10.260411 
  180500    302.42158     314.6363    296.31638   -239035.56    1.0491904    10.273905 
  181000     298.2954    284.45611    305.65129   -239033.79    1.0315342    10.386838 
  181500    297.90878    301.38426    296.31667   -239020.46    1.0143124     10.50078 
  182000    296.04943     308.2572    289.94346   -239003.84    1.0046061    10.566719 
  182500    294.90823    300.37642     292.2843      -239015    1.0173246    10.480572 
  183000    303.71769    310.65027    300.34302   -239014.28    1.0388312    10.339699 
  183500    291.68175    289.43433     293.0428   -239101.25    1.0465496    10.290554 
  184000    298.24133    294.14343    300.56313    -239062.8    1.0415233    10.322475 
  184500    304.39567    310.70948    301.34124   -238942.24    1.0372893    10.349605 
  185000     301.5924    291.08601    307.22821   -239025.97    1.0433149    10.311062 
  185500    297.16593    301.84769    294.94995   -239038.01    1.0495498    10.271646 
  186000    296.41003    300.52485     294.4865   -238991.61    1.0404926    10.329059 
  186500    308.59961     311.2604    307.43582   -238965.22    1.0319418    10.384187 
  187000    294.39899    280.92695    301.56243   -238966.11    1.0240656    10.435781 
  187500    301.78572    306.06367    299.78157   -238934.49    1.0311511    10.389331 
  188000    292.99713     300.3935    289.37546   -239077.09    1.0454455    10.297539 
  188500    296.23394    299.81162    294.58787   -239093.78    1.0590828    10.212277 
  189000     302.8457      302.336    303.31638   -239007.25    1.0614263    10.197846 
  189500     305.8509    307.15667    305.38547   -238934.79    1.0503092    10.266877 
  190000    301.77661    303.73564    300.97081   -238946.93    1.0398928    10.332896 
  190500    302.36134    304.39367    301.51806   -238996.57    1.0369567    10.351745 
  191000    299.01164      302.298    297.51801   -238980.56    1.0416634    10.321581 
  191500     302.9099    304.01637    302.54544   -238917.14    1.0415559    10.322267 
  192000     308.6519    303.41312     311.5704   -238934.17    1.0356035    10.360468 
  192500    302.78261    300.45048    304.19502   -238965.91    1.0428784    10.313839 
  193000    308.48291    304.95719    310.51603   -238984.91    1.0381255    10.344229 
  193500     299.2137    293.93849    302.14456   -238962.11    1.0263284    10.420877 
  194000     293.2681    291.45623    294.40515   -238985.15    1.0244366    10.433332 
  194500    296.27243    296.55749    296.32791   -238997.61    1.0241135    10.435465 
  195000    298.25476    294.91214    300.18626   -238957.18    1.0231766    10.441654 
  195500    295.76285    293.43128    297.17017   -238918.26    1.0189902     10.46945 
  196000    296.97795    295.86353    297.75712   -238978.82     1.022523    10.445978 
  196500    305.49616    304.44052    306.25079   -238947.63    1.0351611    10.363325 
  197000    305.42317    313.91237    301.24526   -238975.28    1.0420221    10.319293 
  197500    304.27901    308.93387    302.08179   -238992.53    1.0411975    10.324555 
  198000     290.7166     304.5327    283.77585   -238987.76    1.0329228    10.377816 
  198500    308.65175    306.98043     309.7267   -238997.84    1.0271302    10.415612 
  199000    299.02093    302.75582    297.29553   -239011.26    1.0247306    10.431394 
  199500    296.30258    305.38635    291.81117   -239016.86    1.0267412    10.418165 
  200000    296.36557    295.95181    296.78224   -238989.72    1.0226406      10.4452 
  200500     295.0246    303.80417    290.68952   -238986.63    1.0206204    10.458598 
  201000     297.9998    299.66709    297.34217   -238975.36    1.0078517    10.544529 
  201500    307.09178    311.45166    305.04892   -238929.59    1.0008285    10.592728 
  202000    296.06391    297.04998    295.75698   -238887.79   0.98456777    10.706962 
  202500    300.83782       297.59     302.7221   -238912.24   0.98056231    10.735683 
  203000    301.07578    296.20108    303.80096   -238945.99   0.97900216    10.746933 
  203500      300.719    292.57718    305.13228   -238948.33    1.0007669    10.593154 
  204000    294.68029    285.96499    299.38579   -238999.76    1.0224335    10.446571 
  204500    313.08841    313.72289    312.97482   -238845.66    1.0383305    10.342912 
  205000     300.0522    294.64313    303.05282   -238905.22    1.0253362    10.427404 
  205500     294.2403    284.85288    299.29283   -239001.43    1.0159082    10.490059 
  206000    294.12507    301.85416    290.33223   -238984.24    1.0116291    10.518882 
  206500    303.94846    304.38615    303.93031   -238955.47    1.0092918    10.534728 
  207000    297.37161    295.58468    298.49858   -238965.91    1.0059016    10.557844 
  207500    302.39372    293.09088    307.40812    -238984.3    1.0184542    10.473025 
  208000    297.72048    296.43117    298.59053   -238942.37    1.0079962    10.543544 
  208500    300.73561     296.2599    303.25436   -238996.53    1.0051308    10.563122 
  209000    293.65734    298.77795    291.21216   -238988.32     1.017349    10.480409 
  209500    300.89006    303.86303    299.55967      -239045    1.0353287    10.362242 
  210000    295.60342    291.85952    297.74049   -239097.72    1.0549781    10.237708 
  210500    300.26681    295.97829    302.68851   -239016.93     1.050052    10.268491 
  211000    297.45418     300.0334    296.32492   -239016.01    1.0398617    10.333096 
  211500    296.81438    287.52538    301.81781   -239029.89    1.0252923    10.427693 
  212000    305.22686     301.2839    307.47338   -238978.48    1.0226996    10.444809 
  212500    300.17045    302.97342    298.92742   -238970.27     1.037391     10.34895 
  213000    297.04923    297.44087    297.05016   -238953.53    1.0376296    10.347416 
  213500    300.24318    296.42787    302.42031    -239013.6    1.0348047    10.365628 
  214000    301.23117    303.44645    300.29257   -238962.04    1.0268195    10.417651 
  214500    301.70851    308.23501    298.54233   -238945.87    1.0113742    10.520607 
  215000     301.0658    309.83791    296.73871   -239019.03     1.007304    10.548264 
  215500    296.95465    299.87128    295.65068   -238961.76    1.0192619    10.467639 
  216000    299.04169    299.90074    298.80245   -238977.04    1.0217872    10.450853 
  216500    297.32343    289.12082    301.76579   -238988.31    1.0353026    10.362411 
  217000     303.1561    308.06825    300.82516   -238953.02    1.0483019    10.279497 
  217500     298.4816    297.43566    299.22641      -239040    1.0526014    10.252524 
  218000    296.88834    297.89277    296.57249   -239050.94    1.0435358    10.309657 
  218500    300.59609     304.9662    298.54351   -239047.68    1.0387684    10.340102 
  219000    298.64926    303.20691    296.49842   -238986.39    1.0410535    10.325474 
  219500    303.87371    314.78785     298.4416   -238965.66    1.0451387    10.299483 
  220000    308.87032    306.54657    310.28258   -238946.25    1.0438494    10.307664 
  220500    301.73697    294.11836    305.88056   -239023.71    1.0384139    10.342377 
  221000    294.29371    290.86622    296.26637    -239110.1    1.0261403    10.422113 
  221500    296.47895     304.4486     292.5634   -239058.47    1.0209508    10.456404 
  222000    297.45565    295.86668    298.48038   -239022.29    1.0221881    10.448196 
  222500    301.94487     298.7991    303.77717   -239007.42    1.0252426     10.42802 
  223000    296.21185    277.85291    305.90194    -239063.3    1.0231709    10.441691 
  223500    302.81299    311.09702    298.73932   -238975.27    1.0242456    10.434593 
  224000     314.2458    319.25487    311.87236   -238918.71    1.0204853    10.459497 
  224500    294.67126     295.8656    294.25575   -238998.33    1.0171796    10.481542 
  225000    295.07696    286.53764    299.69179   -239066.36    1.0245317    10.432705 
  225500    296.59044    283.28034    303.67169   -239085.55    1.0439665     10.30692 
  226000    298.03006    299.96639    297.23342   -239105.05    1.0362093     10.35656 
  226500    302.69493    305.29438     301.5588   -239023.09    1.0260347    10.422807 
  227000    304.84576     306.3422     304.2811   -238932.25    1.0212718    10.454273 
  227500    311.88073    309.23202    313.46297   -238871.07    1.0248837    10.430384 
  228000    296.85974    299.09764    295.90645   -239088.55    1.0360628    10.357505 
  228500    300.27133    296.34455    302.50609   -239013.58     1.046617    10.290128 
  229000    304.36174     300.7294    306.44714   -239026.89    1.0449009     10.30099 
  229500    297.64471    303.79591    294.66969      -239021    1.0397927    10.333538 
  230000    293.60024    280.23755    300.70662   -239193.49    1.0449669    10.300572 
  230500    298.63894    310.29638    292.81915   -239157.56      1.05396    10.244047 
  231000    305.12299    327.72891    293.64979   -239018.81    1.0611249    10.199698 
  231500    303.66752    296.84584    307.40061   -239004.84    1.0429486    10.313392 
  232000    306.71988    307.93808    306.30028    -239050.3    1.0174439    10.479774 
  232500    303.52009    295.46014    307.89297   -239040.43     1.012904    10.510269 
  233000    309.11585    301.38552    313.32222   -239027.55    1.0287374    10.405082 
  233500    305.67184    313.13544     302.0241   -239119.14    1.0522678    10.254609 
  234000    294.11302    280.66451     301.2641   -239157.69    1.0504529    10.265975 
  234500    303.72906    292.54667    309.71567    -239097.1    1.0358494    10.358882 
  235000    298.65757    309.65761    293.17751   -239186.51    1.0117698     10.51793 
  235500    293.81517    299.38257    291.13921   -239080.16     1.004886      10.5648 
  236000    306.21365    303.05029    308.05797   -239080.93    1.0177779    10.477542 
  236500    307.18505    310.47327    305.69606   -239048.84    1.0356589    10.360111 
  237000    303.32349    298.23982     306.1582   -239096.03    1.0336462    10.373126 
  237500    298.71015    304.91359    295.70886   -239075.64     1.010362    10.527464 
  238000    303.31578    302.58135    303.90291   -239047.87   0.99573487     10.62811 
  238500    301.31118     300.6178    301.87574   -239020.22   0.99307226     10.64675 
  239000    299.06274    305.52655    295.92713   -239051.48   0.99593396    10.626721 
  239500    301.16845    296.60957    303.73047   -239138.28    1.0125923    10.512373 
  240000    293.91726    306.84982    287.43529   -239128.33    1.0189206    10.469914 
  240500     300.3268    315.10188    292.89706   -239162.89    1.0169591    10.483018 
  241000    292.92754      296.367    291.35063   -239186.94    1.0168326    10.483865 
  241500     307.9289    315.96129    303.98877   -239123.64    1.0254289    10.426794 
  242000    308.42197    304.93023     310.4375   -239104.49    1.0308324    10.391407 
  242500    307.22409    309.37399    306.32337   -239140.75    1.0474228     10.28504 
  243000    308.56007    313.31582    306.31365   -239054.65     1.046815    10.288877 
  243500    305.36776    309.55082    303.41509    -239034.5    1.0340423    10.370561 
  244000    307.05952    310.05612    305.72114   -239055.88    1.0263943    10.420444 
  244500    300.33532    302.07509    299.64182   -239072.38    1.0257615    10.424605 
  245000    300.53399    294.51092    303.85223   -239098.93    1.0284163    10.407184 
  245500    307.17698    306.55784    307.70718   -239028.93    1.0331067    10.376623 
  246000    306.89978    309.43438    305.80003   -239111.63    1.0194129    10.466633 
  246500    295.32402    298.52547    293.87174   -239089.63    1.0108761    10.523979 
  247000    300.67151    291.31305    305.71347   -239112.01     1.000592    10.594363 
  247500    299.71354    279.03367    310.60541   -239122.28   0.99797971    10.612472 
  248000    303.92542    293.45621    309.54362   -239042.97    1.0132929    10.507646 
  248500     304.6792    309.80139    302.24075   -239074.05    1.0307089    10.392211 
  249000    304.28419    309.94807    301.56555   -239015.64    1.0373302    10.349342 
  249500    290.99223    283.28444    295.17455   -239159.32       1.0268    10.417779 
  250000    306.10945    310.64911    303.97302   -239095.49    1.0193531    10.467031 
  250500    299.70422    301.17681    299.14837   -239092.37    1.0305074    10.393524 
  251000    299.94885    297.71624     301.3079   -239043.89    1.0255037    10.426301 
  251500    311.65667    307.29291    314.12504   -238863.01    1.0202143    10.461299 
  252000    299.88594    297.03217    301.56595   -239008.76    1.0144176    10.500072 
  252500    293.26537    297.08352      291.493   -239096.52    1.0183764    10.473544 
  253000     294.4596    293.65273    295.07812    -239179.2      1.03095    10.390641 
  253500    299.57247    298.12834    300.52379   -239112.07    1.0318166    10.385001 
  254000    300.04326    299.90739    300.31884   -239039.18    1.0186636    10.471628 
  254500    294.74678    293.03885    295.83114   -239064.25    1.0062557    10.555423 
  255000    291.21875    275.72047    299.42712   -239153.76    1.0030633    10.577318 
  255500    305.91945    302.74834    307.76757   -239051.09    1.0093685    10.534207 
  256000    309.35138    311.76452    308.31608   -239029.54    1.0064968    10.553775 
  256500    303.25553     299.2873    305.51376   -239056.99     1.011478    10.519905 
  257000    296.72972    295.15976    297.74414   -239150.71    1.0168248    10.483917 
  257500    301.30758     305.5358     299.3288   -239121.28    1.0279587     10.41018 
  258000    298.12913    298.81332    297.97963   -239078.26     1.036098    10.357278 
  258500    292.44918    299.56652    288.97133   -239118.29    1.0365031    10.354667 
  259000    302.62285    304.10778    302.06261   -239143.86    1.0340748     10.37035 
  259500    307.00278    305.98775    307.73744    -239095.2    1.0260377    10.422788 
  260000    306.31605    298.23236    310.70311   -239034.93    1.0274635    10.413425 
  260500    307.52795    306.75801    308.13632   -239024.69    1.0338905    10.371543 
  261000    303.20232    295.59639    307.34036   -239114.24     1.038658     10.34081 
  261500    297.03868    295.47524    298.04993   -239162.43    1.0261897    10.421788 
  262000    300.04508    312.76618    293.67657   -239153.51    1.0187695    10.470921 
  262500    301.43812    299.69531    302.54508   -239164.12    1.0279691    10.410112 
  263000    289.09723    298.30126    284.53875   -239234.56    1.0361529    10.356924 
  263500    303.84034    306.35831     302.7471   -239124.88    1.0436141     10.30916 
  264000    298.40974    298.60051     298.5154   -239070.79    1.0385274    10.341649 
  264500    301.80544    313.33864    296.05201    -239080.5    1.0481598    10.280392 
  265000    294.64644    297.93066    293.15093   -239191.78    1.0538796    10.244548 
  265500    303.87292    294.10081    309.13084    -239067.9    1.0484519    10.278552 
  266000    310.96806    316.33447    308.40771   -238998.34    1.0275732    10.412706 
  266500    298.11672    299.58621    297.56139    -239017.9    1.0032158    10.576269 
  267000    296.77543    290.35166    300.29817   -239108.59    1.0086589    10.539032 
  267500    302.51537    308.90059    299.42275   -239122.55    1.0237911    10.437593 
  268000    301.18588    305.39698    299.21586   -239145.47    1.0308526    10.391275 
  268500    299.88823    304.46793    297.72684   -239080.29    1.0337901    10.372193 
  269000    304.36136    309.57313    301.87641   -239028.53    1.0295839     10.39955 
  269500    299.34725     304.5609    296.85789   -239112.46    1.0148896    10.496898 
  270000     297.8724    310.25727    291.67617   -239071.17    1.0046764    10.566237 
  270500    303.33135    290.94535    309.93967   -239105.57    1.0082841    10.541583 
  271000     299.2078    293.63356     302.2932   -239054.51     1.017465    10.479633 
  271500     300.4446    309.75912    295.83679   -239057.39    1.0272135    10.415065 
  272000     307.5965    302.88494    310.24183    -239058.6    1.0316854    10.385854 
  272500    307.05446    304.51992    308.57439   -239066.02    1.0347857    10.365751 
  273000    302.31678    298.96522    304.25569   -239095.18    1.0407996    10.327096 
  273500    297.12561     284.6476    303.77723   -239143.16    1.0353413    10.362161 
  274000    305.76228    311.40755    303.05427   -239069.69    1.0285329    10.406421 
  274500    286.37816    299.83424    279.62049   -239266.19    1.0255426    10.426045 
  275000    303.46331    317.10413    296.62186   -239140.56    1.0268341    10.417555 
  275500    294.33416    290.68768    296.42001   -239213.82    1.0326037    10.379887 
  276000    296.73806    295.51156    297.57498   -239167.96    1.0424159    10.316784 
  276500    301.67223    311.62903    296.73334   -239114.53    1.0519869    10.256366 
  277000     303.2996    308.43527    300.85323   -239108.14    1.0464127    10.291419 
  277500    290.93078    294.07045    289.50742   -239243.17    1.0332818    10.375488 
  278000    289.79556    278.57741    295.79111   -239249.46    1.0292872    10.401488 
  278500    302.89523    307.55311     300.6955   -239184.65    1.0439917     10.30676 
  279000    300.48736    307.52137    297.05806   -239204.56    1.0547308    10.239247 
  279500    300.73069    303.98255    299.25606   -239178.32    1.0509559    10.262821 
  280000     297.7549    288.65489    302.66131   -239171.99    1.0240102    10.436146 
  280500    298.31953    290.22874    302.70479   -239096.02    1.0079312    10.543987 
  281000    304.81037    293.35584    310.93835   -239061.35    1.0047814    10.565517 
  281500    307.72947     301.7562     311.0269   -239044.37    1.0120446    10.516073 
  282000    294.32395    301.28681    290.92722   -239137.36    1.0132624    10.507852 
  282500    308.69511    311.51345    307.44998   -239091.84    1.0134819    10.506372 
  283000     300.1033    289.58088    305.74637   -239162.55    1.0195702    10.465585 
  283500    300.65929    290.02805    306.35897   -239082.73    1.0336622    10.373022 
  284000    300.82361    304.85616    298.94562   -239155.48    1.0352402    10.362814 
  284500    301.24892    302.95992    300.57092   -239138.52    1.0310385    10.390064 
  285000    308.04996     325.6666    299.15707   -239081.78    1.0190033    10.469362 
  285500    301.45474    288.79745    308.20197    -239067.2    1.0149037    10.496803 
  286000    295.57585    294.78947    296.18453   -239124.83    1.0254654    10.426553 
  286500    288.01068    279.39894    292.65809   -239252.32     1.039096    10.338001 
  287000    298.10524    292.82178    301.03961   -239135.39    1.0383029     10.34309 
  287500    298.36207    286.66263    304.61221   -239126.59    1.0251552    10.428596 
  288000    304.09341    296.70578    308.11925   -239071.25     1.014023    10.502727 
  288500    295.26181    299.30089    293.37664   -239113.74     1.013965    10.503118 
  289000    298.17151    298.04862    298.43911   -239125.39     1.035662    10.360091 
  289500     302.9203    317.58811    295.54776   -239010.92    1.0447792    10.301762 
  290000    300.45217    300.52765    300.61882   -239104.29    1.0418378    10.320469 
  290500    294.09302    286.73922    298.09454   -239094.32    1.0313136    10.388273 
  291000    305.06559    305.58021    305.00845    -239034.1    1.0164635    10.486337 
  291500    296.50137    293.44118    298.28572   -239061.74    1.0167082    10.484697 
  292000    292.84279    289.29628    294.87595   -239135.53     1.031465    10.387288 
  292500    296.41788    302.77331    293.33648   -239115.29    1.0477837    10.282763 
  293000    299.56656    303.34574    297.81865   -239097.89    1.0432749    10.311316 
  293500    296.91915    288.83982    301.29754    -239101.8    1.0307891    10.391689 
  294000    298.40073    314.34374    290.36612   -239108.41    1.0261493    10.422054 
  294500    302.84031    305.24951     301.8026   -239171.75    1.0265825    10.419207 
  295000    303.87164    308.76776    301.54947   -239142.64    1.0271676    10.415366 
  295500    308.39444    301.32716    312.25768   -239041.27    1.0289836    10.403472 
  296000    300.63822    294.17805    304.18241   -239119.89    1.0282618    10.408195 
  296500    293.76706    290.73104    295.53705    -239122.5    1.0341455    10.369893 
  297000    299.97936    294.19164    303.17561   -239132.06     1.032093    10.383204 
  297500    303.94756    300.26279    306.05977   -239089.13    1.0305664     10.39314 
  298000    293.51749    295.18788    292.85519   -239147.48    1.0237464    10.437888 
  298500    304.20475    308.17086     302.3634   -239131.83    1.0274294    10.413649 
  299000    293.14096    295.03814     292.3612   -239130.16     1.027738    10.411626 
  299500    295.73638     302.0449    292.67875   -239090.52    1.0246055    10.432219 
  300000    305.04116    302.83841    306.38826   -239057.36    1.0295032    10.400077 
  300500    308.64154    294.71842    316.04783   -239089.65    1.0128403    10.510699 
  301000    302.31526    313.77061    296.60241   -239051.66    1.0039121    10.571483 
  301500    290.74379    285.05081    293.88474   -239178.86    1.0025366    10.580944 
  302000    293.78458    295.47371    293.11278   -239176.73    1.0164089    10.486703 
  302500    301.65884    300.17177    302.63378   -239094.32    1.0317986    10.385118 
  303000    299.41141    303.25523    297.62998   -239099.34    1.0236976    10.438211 
  303500    304.04916    303.03155    304.78314   -239117.01    1.0336645    10.373008 
  304000    308.39407    323.54115    300.77761   -239029.92    1.0379971    10.345054 
  304500    301.77365    301.92499      301.902   -239177.18    1.0340401    10.370574 
  305000    293.54177    280.29591    300.58774   -239119.18    1.0324165    10.381103 
  305500    307.87465    296.32421    314.05429   -239065.61    1.0312845    10.388463 
  306000    299.74632    297.74145    300.98754   -239121.24    1.0176315     10.47852 
  306500    302.17967    308.98176    298.87139   -239119.74    1.0245671    10.432472 
  307000    303.03966     308.8199    300.26003   -239105.79     1.046986    10.287797 
  307500    294.72131    285.08669    299.90192   -239136.52    1.0413474    10.323598 
  308000    304.76498    303.38761    305.68536    -239090.3    1.0299215    10.397346 
  308500    310.03197    321.73065    304.19865   -239029.86     1.014867     10.49705 
  309000     291.9863    309.44033    283.16644   -239172.76     1.014609    10.498784 
  309500    296.43199    305.11306    292.14878   -239123.91    1.0428894    10.313769 
  310000    298.27394    298.05572    298.59087   -239132.27    1.0563254    10.229339 
  310500    299.64241    305.69422    296.72012   -239121.87    1.0482984    10.279519 
  311000    299.07663    289.74342    304.10445   -239095.25    1.0287102     10.40526 
  311500    300.09895    298.20164    301.28484   -239155.37    1.0172115    10.481329 
  312000    299.36694    299.40524    299.55206    -239056.5    1.0143135    10.500772 
  312500    299.46728    308.33969    295.08727   -239155.49    1.0118604    10.517318 
  313000    302.65898    304.99904    301.65687   -239195.13    1.0261821    10.421839 
  313500    295.82235    296.63236    295.60625   -239238.52    1.0430404    10.312808 
  314000    307.90468    306.03715     309.0805   -239139.21    1.0436254    10.309088 
  314500    302.71985    297.80472    305.46704   -239118.75     1.035165      10.3633 
  315000    302.81079    295.59071    306.74917   -239153.02    1.0229652    10.443052 
  315500     301.9765    294.37736     306.1102    -239197.4    1.0170782    10.482221 
  316000    299.26482    292.83422     302.7928   -239225.85    1.0280147    10.409813 
  316500    290.63432    280.04656    296.30467   -239240.28    1.0445195     10.30341 
  317000    292.41984    297.19531    290.15217   -239242.83    1.0603181    10.204662 
  317500    303.76515    305.27236    303.19419    -239097.7     1.055194    10.236366 
  318000    304.07246    296.37558     308.2581   -239125.95    1.0260845     10.42248 
  318500    294.54054    282.02631    301.20911   -239185.12    1.0037646    10.572496 
  319000    305.49485    317.04235    299.73656   -239159.11    0.9945337    10.636507 
  319500    296.20711    298.43166    295.26027   -239157.51   0.99719246    10.617948 
  320000    298.00879    307.40282    293.35823   -239263.35    1.0149602    10.496424 
  320500    293.16105    298.40447    290.65207   -239297.13    1.0254635    10.426566 
  321000    310.23734    313.60349    308.71017   -239133.58    1.0193909    10.466779 
  321500    298.24375    287.58449    303.95627   -239234.64    1.0181164     10.47528 
  322000     299.3871    293.53236    302.61757    -239279.2    1.0145741    10.499019 
  322500    288.22291    283.66751    290.77427   -239371.85    1.0436612     10.30886 
  323000    300.32606    293.70205    303.95471   -239235.73    1.0674663    10.160944 
  323500    304.99234    304.54643    305.43154    -239175.7    1.0403734    10.329821 
  324000    295.73611     305.9504     290.6601   -239255.13    1.0261279    10.422195 
  324500    299.09122     303.7545    296.88609   -239238.95    1.0221134    10.448692 
  325000    300.36038    319.28569    290.78594   -239152.24    1.0235631    10.439099 
  325500    303.96643    304.14696    304.08119   -239200.93    1.0398426    10.333218 
  326000    296.51405    299.57081    295.13736   -239169.42    1.0443748    10.304328 
  326500    307.54598    298.49666    312.43289   -239157.54     1.040178    10.331071 
  327000    305.50268    284.16327    316.73934   -239179.75    1.0288124    10.404592 
  327500    299.40768    294.74406    302.02263   -239119.21    1.0169664    10.482969 
  328000    304.77909    296.74208    309.14098   -239139.24    1.0099539    10.530232 
  328500    303.47072    310.02001    300.29397   -239162.19    1.0181932    10.474768 
  329000    290.59246    295.63826    288.18385    -239220.4    1.0296558     10.39908 
  329500    298.03937    300.23453    297.10897   -239206.35    1.0381158    10.344291 
  330000    302.45149    314.16852     296.6035   -239227.55    1.0487297    10.276803 
  330500    295.66986    304.08177    291.52521   -239195.32    1.0414974     10.32264 
  331000    296.30256    303.63243    292.71752   -239188.77    1.0352273    10.362897 
  331500    300.30499    293.49921    304.02755   -239140.21    1.0265751    10.419256 
  332000    299.74887    300.29431    299.67217   -239191.62    1.0242171    10.434781 
  332500    293.63167     293.3823    293.96152   -239201.43    1.0207226     10.45792 
  333000    302.40007    304.49313    301.52543   -239210.42    1.0222516    10.447776 
  333500    290.79948    296.19595    288.20979   -239319.53    1.0217242    10.451272 
  334000    299.81953    300.28867     299.7823    -239236.9    1.0108145    10.524397 
  334500    299.05578    292.57503    302.60952   -239166.02    1.0088829    10.537509 
  335000    310.65494    308.96643    311.74015   -239038.69    1.0193612    10.466977 
  335500     307.6442     292.7154    315.56952   -239168.71     1.044069    10.306269 
  336000    305.16329    302.07346    306.96889   -239162.07    1.0578903    10.219645 
  336500    292.38901    297.62798     289.8818   -239237.46    1.0369386    10.351861 
  337000    299.81904    309.00855     295.2754   -239188.03    1.0120902    10.515764 
  337500    303.51933    302.12764    304.44625   -239131.58   0.99288265    10.648081 
  338000    303.99336    309.31178    301.45303    -239164.4    1.0097853    10.531376 
  338500    292.92746     284.2959    297.58848   -239206.73    1.0275528     10.41284 
  339000    301.69768    319.29241    292.81176   -239174.96    1.0372442    10.349895 
  339500     306.8831     320.1367     300.2441   -239126.39    1.0269856    10.416561 
  340000    301.87065    300.55493    302.75719   -239109.24    1.0043771    10.568291 
  340500    300.31132    296.60246    302.43349   -239067.04   0.99155637    10.657407 
  341000    291.65375    295.22463    290.00806   -239219.43   0.98422198    10.709432 
  341500    295.20123    289.18977    298.50982   -239219.71   0.99314583    10.646234 
  342000    294.82155    295.45742    294.69475   -239140.14    1.0139519    10.503206 
  342500    313.34953    310.88569    314.83725   -239089.04    1.0308993     10.39097 
  343000    291.29702    283.79591    295.37274   -239256.05    1.0319378    10.384213 
  343500    300.10464    293.92435    303.50383   -239190.24    1.0278514    10.410883 
  344000    294.42536    307.62813     287.8041   -239306.69    1.0371697    10.350374 
  344500    291.18479    289.57832    292.21427   -239266.63    1.0350465    10.364065 
  345000    297.68557    285.61135    304.12892   -239202.93    1.0216858    10.451526 
  345500    291.86609    296.05382    289.90177   -239322.59    1.0096359    10.532391 
  346000    303.62056    310.14222    300.45819   -239187.79    1.0008101    10.592856 
  346500     295.5994    296.25732    295.46173   -239316.22    1.0123099     10.51428 
  347000    298.81139    309.63353    293.42337   -239286.85    1.0256637    10.425248 
  347500    292.70953    297.77656    290.29139   -239370.24    1.0315259    10.386892 
  348000     296.8856    303.70509     293.5647   -239328.22    1.0381019    10.344381 
  348500    297.05675    299.17926    296.16322   -239236.65    1.0225487    10.445808 
  349000    296.27659    297.15058    296.02773    -239237.7   0.99768471    10.614523 
  349500    309.35946    310.87092    308.79013   -239159.79   0.99953539    10.601676 
  350000    298.18799    303.05358     295.8777   -239194.56    1.0095789    10.532778 
  350500    295.85923    289.55211    299.32106   -239251.94    1.0236517    10.438514 
  351000    301.15196     303.7444    300.01839    -239211.5    1.0219136    10.450015 
  351500    299.24537    292.08734    303.14925   -239275.56    1.0097877    10.531361 
  352000    297.94026    301.01876    296.55332   -239251.81    1.0035947    10.573664 
  352500    291.61298    297.22601    288.91194   -239319.61    1.0123043    10.514318 
  353000    295.56623     299.0843     293.9505      -239318    1.0122857    10.514444 
  353500    295.18534    296.55439    294.67989   -239305.57    1.0085389    10.539849 
  354000    296.72327    303.37928    293.48675   -239288.39    1.0203967    10.460086 
  354500    301.71976    296.88038    304.42711   -239319.28    1.0282768    10.408097 
  355000    295.07641    298.14983    293.69013   -239346.76     1.038286    10.343198 
  355500    296.81906    299.73457    295.51557   -239385.59    1.0518533    10.257202 
  356000    301.96038    294.21929    306.16742   -239351.12    1.0437443    10.308332 
  356500    303.04866    289.62673    310.19213   -239332.23     1.037031    10.351267 
  357000    305.40519    311.52232    302.45308   -239361.72    1.0350805    10.363846 
  357500    307.68613    314.06241    304.60166   -239361.41    1.0453259    10.298297 
  358000    297.87742    300.03603     296.9658    -239372.9     1.040491    10.329069 
  358500    294.69984    283.70678    300.58243   -239392.49    1.0320334    10.383592 
  359000     306.0443    307.11559    305.70017   -239320.04    1.0365525    10.354348 
  359500      296.895    300.40431    295.28472    -239466.4    1.0398439     10.33321 
  360000    299.61173    296.69627    301.32342   -239393.48    1.0275976    10.412546 
  360500    304.79373    305.43747    304.66969    -239322.9    1.0213079    10.454033 
  361000    304.82658    301.50052    306.75403   -239348.17    1.0132589    10.507875 
  361500    294.23434     295.9476    293.55038   -239381.98     1.006848    10.551376 
  362000    299.91853    287.11146    306.74212   -239382.35    1.0113888    10.520508 
  362500    305.99095    308.34385    304.98449   -239359.23    1.0193987    10.466727 
  363000    298.20064    294.49101    300.32176   -239394.04    1.0300244    10.396675 
  363500    291.05211    286.76603    293.46624   -239462.98    1.0390106    10.338549 
  364000    292.33942    285.76442    295.93728   -239463.69    1.0430962    10.312453 
  364500    294.05835    285.45859    298.70372   -239427.54    1.0322924    10.381909 
  365000     289.5379    283.55301    292.82889   -239447.25    1.0252381     10.42805 
  365500    301.47722    301.42904    301.70848   -239338.45    1.0164577    10.486375 
  366000    301.96296    296.55826    304.96262   -239337.39    1.0014982    10.588103 
  366500    293.09785     293.4354    293.12403   -239376.74   0.99220338    10.652855 
  367000    300.15852     297.4945    301.74065   -239380.14   0.99871633    10.607356 
  367500    301.91532    294.12073    306.14997   -239359.73    1.0208513    10.457065 
  368000    301.57869    281.01672    312.41091   -239382.12    1.0300495    10.396511 
  368500    298.37765    290.45397    302.67659   -239345.29    1.0230745    10.442329 
  369000    295.80146    285.55968    301.29656   -239328.42    1.0102989    10.527892 
  369500    298.13706    295.29455    299.81004   -239292.55   0.99243534    10.651224 
  370000    300.15039    294.89776    303.07022   -239322.39   0.98884626    10.676541 
  370500     297.2044    300.79534    295.55214   -239369.15     1.008126     10.54266 
  371000    301.26635    305.37839    299.34757   -239391.05    1.0272795    10.414632 
  371500    295.74792    305.03136    291.15295   -239460.53    1.0322784       10.382 
  372000    287.27402    286.20301    288.02411   -239443.36    1.0283348    10.407717 
  372500    301.70249    301.48012     302.0239   -239377.36    1.0196659    10.464948 
  373000    299.94638     293.8319    303.31146   -239313.64    1.0020971    10.583972 
  373500    310.29468    317.29381    306.89013   -239228.62   0.99319918    10.645859 
  374000    313.23258    303.53168    318.46011   -239221.35   0.99721698    10.617778 
  374500    295.42126    294.68021    296.00641   -239354.57    1.0057497    10.558884 
  375000    298.34368    298.97285    298.22275   -239330.18      1.02745    10.413514 
  375500    301.40954    317.44909    293.32709   -239337.05    1.0301465    10.395878 
  376000    302.43718    301.76365    302.99225   -239310.87    1.0312828    10.388474 
  376500    295.84887      296.841    295.53867   -239399.19    1.0321272    10.382982 
  377000     298.0489    295.95979    299.33249   -239360.02    1.0231692    10.441703 
  377500    302.03675    290.37323    308.27083   -239417.19     1.013044    10.509325 
  378000    313.10338    315.28751    312.18899   -239174.21    1.0222267    10.447941 
  378500    310.03955    314.98994    307.69356   -239277.38    1.0337664    10.372347 
  379000    293.69705    290.06751     295.7737   -239387.01    1.0344651    10.367824 
  379500    294.00688     292.8833    294.78875   -239337.54    1.0347796     10.36579 
  380000    301.51065     307.2843    298.73338   -239311.62    1.0340308    10.370635 
  380500    303.89497    311.46702    300.18997   -239276.78    1.0408951    10.326486 
  381000    296.35342    302.09046    293.59154   -239214.54    1.0228809     10.44361 
  381500    299.18275     293.2243    302.46667   -239256.74    1.0062944    10.555159 
  382000    295.52511    293.73544    296.65223   -239260.55     1.005795    10.558574 
  382500    304.69622    312.30638    300.97208   -239266.75    1.0243141     10.43414 
  383000    300.99408    306.53373    298.33738   -239265.32    1.0439933     10.30675 
  383500    302.59689    289.12552    309.76559   -239364.05    1.0453766    10.297976 
  384000    294.00722      281.564    300.63873   -239254.14    1.0481014     10.28076 
  384500    299.55845    295.26437    301.98253   -239262.26    1.0277015    10.411865 
  385000    297.23857    292.69355    299.79074   -239340.05     1.022494    10.446171 
  385500    305.58723    312.56744    302.18923    -239228.1    1.0232343    10.441272 
  386000    306.27844    299.38923    310.04821   -239233.93    1.0174859    10.479493 
  386500    298.59645    295.76784    300.26256   -239287.96    1.0149489      10.4965 
  387000    299.02977     306.0474    295.60795   -239230.03    1.0185905    10.472115 
  387500    300.29106    304.27917    298.43567   -239310.67    1.0235602    10.439118 
  388000     294.6912    290.22598    297.20039   -239275.63    1.0348885    10.365086 
  388500     299.9706    303.62917    298.28528   -239281.04    1.0258066    10.424308 
  389000    303.84785    318.51872    296.47436   -239179.28    1.0107003    10.525171 
  389500    285.38708    286.39915    285.05941   -239413.13     1.005617    10.559793 
  390000    295.93701     304.7904     291.5644   -239317.68    1.0142983    10.500874 
  390500    295.71477    297.14239    295.17942   -239288.72    1.0150756    10.495648 
  391000    291.96807    283.24093    296.67783   -239345.49    1.0258948    10.423727 
  391500    297.25405     292.7943    299.76218   -239283.81     1.027983    10.410021 
  392000    290.10975    277.52047    296.81407   -239268.26    1.0128573    10.510584 
  392500    304.79636    309.40516     302.6233   -239272.44    1.0129871    10.509709 
  393000    306.60155    316.37932    301.75856   -239301.01    1.0137658    10.504459 
  393500    301.72928    313.18111    296.01785   -239391.45    1.0178676    10.476942 
  394000    304.51836    307.02633    303.43076   -239302.23    1.0127608    10.511236 
  394500    305.02052    297.86518    308.92696    -239229.7    1.0010764    10.591015 
  395000    311.37726    315.30579    309.56025   -239282.24    1.0029966    10.577777 
  395500    298.25598    297.45439    298.87436   -239343.46    1.0029351      10.5782 
  396000    302.84365    302.78391     303.0818   -239352.57    1.0063958    10.554465 
  396500     302.8938     301.7456    303.69447   -239340.86    1.0115852    10.519179 
  397000    304.63512    306.10173    304.08573   -239264.08   0.99648838    10.622853 
  397500    302.14528    307.41777    299.62742   -239247.53     0.983655    10.713486 
  398000    304.61681     308.0053    303.07423   -239211.75   0.98275687    10.719918 
  398500    296.38584    286.71093    301.58841   -239344.79    1.0061542    10.556117 
  399000    305.21601    316.31805    299.68772   -239250.22    1.0233545    10.440478 
  399500    298.33281    287.64279    304.06128   -239344.87    1.0213458    10.453782 
  400000    295.30203    294.71776    295.80608   -239374.13    1.0117112    10.518327 
  400500    301.48956    305.88432    299.42485   -239321.34    1.0015342    10.587854 
  401000    301.33204    301.03293    301.69287    -239255.2   0.99872956    10.607264 
  401500    302.88718    301.90117    303.60404   -239230.11    1.0109985     10.52315 
  402000    296.35209     301.9848    293.64412    -239425.9    1.0150175    10.496039 
  402500     299.8642    300.67913    299.64831   -239260.93    1.0254831    10.426436 
  403000    303.72959    296.97029    307.43048    -239246.6    1.0183656    10.473616 
  403500    295.23032     289.6714    298.30507   -239282.54       1.0171    10.482074 
  404000    297.40599    289.69987    301.59183    -239331.4    1.0079346    10.543964 
  404500    305.33088    309.51266    303.37886   -239181.14    1.0079605    10.543787 
  405000    296.88354    297.16738    296.94007   -239282.52   0.99899395     10.60543 
  405500    293.17099    286.29387    296.92553      -239342     1.003168    10.576597 
  406000    288.65271    282.54181    292.00821    -239303.1    1.0237853    10.437631 
  406500    298.62926    289.62298    303.48783   -239297.21    1.0375535    10.347905 
  407000    291.30564    278.31719    298.21706    -239272.4    1.0428762    10.313853 
  407500    308.43934    308.66544    308.53361   -239197.68    1.0399487    10.332539 
  408000    300.76527    296.91405    302.96133   -239178.46    1.0397205       10.334 
  408500    303.37428    300.69333    304.96736   -239278.57    1.0359882    10.357986 
  409000    298.84766     298.9692     298.9894   -239276.34     1.034087    10.370271 
  409500    301.16159    298.94065    302.51544   -239219.84    1.0290369    10.403123 
  410000    297.29971    300.07595    296.06853   -239246.51    1.0250023    10.429603 
  410500    302.22592    302.84779    302.11143   -239168.85    1.0133369     10.50735 
  411000     296.1745    304.58865    292.02904   -239146.09    1.0057321    10.559005 
  411500     294.9871    296.48807    294.41336   -239230.85    1.0150796    10.495622 
  412000    294.67018    286.07491    299.31365   -239228.98    1.0300773    10.396329 
  412500     298.2536    294.22362    300.54031   -239292.59    1.0370423    10.351194 
  413000    309.14446    309.07187    309.39357   -239220.17    1.0397582    10.333758 
  413500    299.71503    284.58923    307.73673   -239294.83     1.054244    10.242277 
  414000    297.59527    302.30564    295.36478   -239260.57    1.0539982    10.243809 
  414500    299.44494    300.63164    299.03664   -239262.87    1.0446334    10.302687 
  415000    288.82866    278.82628    294.19527   -239402.94    1.0361147     10.35717 
  415500    303.27315    299.56292    305.39806   -239240.59    1.0421093    10.318737 
  416000    300.00932    308.83311    295.65481   -239271.27    1.0489639     10.27533 
  416500    302.99703    295.33088    307.16605   -239225.65    1.0545382    10.240446 
  417000    299.95031     297.6663    301.33592   -239201.15    1.0448147    10.301537 
  417500    299.29815    295.71865    301.35279   -239218.16    1.0355991    10.360497 
  418000    297.58328     296.2588    298.47142   -239260.53    1.0289084    10.403964 
  418500    303.71755    293.77336    309.06428   -239187.51    1.0316713    10.385946 
  419000    305.18013    299.24507    308.45607   -239130.13    1.0298034    10.398117 
  419500    301.29645    299.34549    302.51087   -239169.05    1.0263711    10.420596 
  420000    301.96188     289.2662    308.72929   -239161.15     1.023564    10.439093 
  420500    300.63415     309.4784    296.26949   -239253.01    1.0354973    10.361154 
  421000    302.49222    297.80772    305.12007   -239259.94    1.0504645    10.265902 
  421500     302.7816    303.40563    302.66637   -239215.53    1.0572342    10.223706 
  422000    302.99957    302.33087    303.55253   -239227.71    1.0550474    10.237278 
  422500    291.15828    296.75724    288.46419   -239331.68    1.0262905    10.421126 
  423000     297.9424    298.04612    298.09273   -239236.11    1.0010338     10.59131 
  423500    299.32018    309.74753    294.13651   -239214.78   0.99930196    10.603294 
  424000     298.2902    299.00754    298.12367   -239320.51    1.0257916    10.424407 
  424500    289.72741    288.69472    290.45938   -239355.59    1.0406475    10.328069 
  425000    299.67598     294.4703    302.57123   -239208.25    1.0332459     10.37572 
  425500    306.65818    305.06442    307.69168   -239207.58    1.0237233     10.43804 
  426000    309.83084    322.14645    303.67857   -239177.08    1.0205842    10.458839 
  426500    301.16916    305.08117    299.35368    -239234.2    1.0307515    10.391934 
  427000    302.51636    295.20803    306.50015   -239194.91    1.0351947    10.363108 
  427500    299.50641    316.56826    290.89438   -239187.77    1.0348785    10.365151 
  428000     289.6653    296.68933    286.23376   -239372.37    1.0469391    10.288093 
  428500    292.48961    291.98193    292.95216   -239256.64    1.0364169    10.355222 
  429000    296.32722    299.63068    294.82291   -239238.28      1.02183     10.45057 
  429500    306.65944    301.71869    309.42257   -239195.81     1.010328    10.527694 
  430000     306.2647    296.55243    311.49333   -239140.79    1.0144639    10.499761 
  430500      300.839    309.64314     296.4952   -239194.28    1.0398398    10.333236 
  431000    291.97717     290.9352    292.71548   -239212.57    1.0577989    10.220211 
  431500    302.85672    293.28318    308.01133   -239141.84      1.05498    10.237697 
  432000    304.31166    304.63957     304.3505   -239109.89    1.0243245    10.434072 
  432500    304.73748    304.63516    304.99894   -239054.08    1.0069291    10.550822 
  433000    294.86904     284.4738     300.4428   -239078.49     1.010644    10.525552 
  433500    297.48858    291.88975    300.58551   -239161.49    1.0231088    10.442102 
  434000     305.8947    319.32816    299.16207   -239116.23     1.015855    10.490416 
  434500    306.46673    310.32105     304.6847   -239002.76    1.0116344    10.518846 
  435000    300.37345    289.29171    306.30574    -239012.9   0.99574408    10.628046 
  435500    308.94018    302.14025    312.66563   -239023.88    1.0010289    10.591344 
  436000    295.08505    284.41597    300.80048   -239179.03    1.0020714    10.584149 
  436500    302.43992    299.16106    304.34134   -239156.45    1.0107944    10.524533 
  437000    298.83222    297.49871    299.72587   -239172.89    1.0124163    10.513561 
  437500    300.85899    296.52484    303.30467    -239112.4    1.0040503    10.570534 
  438000    301.12395    301.20623    301.28754   -239148.61   0.99439386    10.637486 
  438500    300.27064    297.33866    301.99132   -239123.13    0.9968444    10.620372 
  439000    300.71599    306.38453     297.9925   -239170.14     1.018949    10.469725 
  439500    290.50166    293.12497    289.34485    -239234.1    1.0379012     10.34567 
  440000    302.93977    307.90066    300.58349   -239195.67    1.0404366    10.329417 
  440500    303.05449     308.0622    300.67408   -239118.66    1.0299822     10.39695 
  441000    298.11808    307.28104    293.58699   -239148.37    1.0182809    10.474182 
  441500    298.94404    298.15072    299.55862   -239161.12    1.0168513    10.483739 
  442000    306.69565    316.42033    301.88015   -239063.74     1.018016     10.47595 
  442500    295.90316    305.39068    291.20284   -239156.95    1.0167789    10.484224 
  443000     294.4769     305.6587    288.90005   -239138.17    1.0344793    10.367732 
  443500    296.50362    299.24099    295.29197   -239165.78    1.0509061    10.263134 
  444000    295.86108    293.13557    297.47204   -239214.26    1.0524217    10.253647 
  444500    303.66041     311.4467    299.84453    -239175.1    1.0291671    10.402272 
  445000    296.86522    311.54809    289.48075   -239174.91    1.0142769    10.501018 
  445500    300.65284    306.37302    297.90261   -239177.47    1.0200728     10.46224 
  446000    308.85075    308.57287    309.20574   -239220.08    1.0289688    10.403569 
  446500    291.91072    283.80515    296.29923    -239215.4    1.0312903    10.388425 
  447000    302.94322    295.21923    307.14209   -239157.75     1.024469    10.433119 
  447500    300.35282    290.73785    305.52713   -239194.74    1.0150285    10.495965 
  448000    303.31125    309.50469    300.31827   -239105.35   0.99733967    10.616924 
  448500    309.43822    298.21335    315.45069   -239103.84   0.98591694    10.697341 
  449000    301.43056    289.18629    307.96435   -239165.27    0.9896278    10.671012 
  449500    309.41409     297.8387    315.60768   -239110.48   0.98952575    10.671734 
  450000     299.3914    301.89827    298.30086   -239206.59   0.98824026    10.680834 
  450500    298.17019    305.23102    294.72546   -239144.36   0.99503559    10.632996 
  451000    290.97138    296.93707    288.08766   -239233.12   0.99840018    10.609551 
  451500    302.29765    305.03192    301.09157   -239183.94   0.99828855    10.610326 
  452000    302.71056     309.1605    299.58462   -239223.82    1.0095169    10.533199 
  452500    302.19255    295.55408    305.82995   -239206.58    1.0176932    10.478107 
  453000    294.94847    301.04539    291.99965   -239333.24    1.0197493    10.464393 
  453500    290.16792    291.87289    289.48545   -239316.35    1.0137395    10.504637 
  454000     289.6985    291.30993    289.06405   -239310.11    1.0150473    10.495838 
  454500    304.33856    304.31044    304.56139   -239242.36    1.0117886    10.517803 
  455000    299.80781    293.04567    303.50749   -239195.32    1.0176815    10.478186 
  455500    296.60372    303.38899    293.30031   -239303.19    1.0284125    10.407208 
  456000    299.49535     301.4813    298.67407   -239295.52    1.0399744    10.332374 
  456500    300.15137    300.06811    300.39985    -239236.4    1.0358772    10.358702 
  457000    303.43916     309.6022    300.46198    -239216.5    1.0299136    10.397397 
  457500    295.14013    291.49422    297.22623   -239209.19    1.0200252    10.462556 
  458000    306.44504    304.10352    307.86481   -239197.39    1.0193163    10.467276 
  458500    298.45386    298.12133    298.82998   -239252.53    1.0204511    10.459724 
  459000    298.48923    298.60759    298.63237   -239284.67     1.044074    10.306237 
  459500    293.52841    291.38746    294.83571   -239316.67    1.0363682    10.355536 
  460000    291.22764    286.03728    294.10919   -239258.73    1.0157391    10.491194 
  460500    299.32585    304.08509    297.07129   -239194.56   0.99958715    10.601318 
  461000    298.66018    294.32967    301.10248   -239185.26     0.996122    10.625408 
  461500    306.82334    301.80901     309.6246   -239195.58    1.0020324    10.584418 
  462000    312.75259     310.8231    313.96375   -239210.71     1.003306    10.575649 
  462500    306.63862     309.2697    305.48884   -239116.26    1.0100093    10.529857 
  463000    300.81847     299.3784    301.76855   -239203.12    1.0156927    10.491505 
  463500    294.59921    294.67736    294.76047   -239212.34    1.0097887    10.531354 
  464000    293.48509    296.69132     292.0291   -239248.26    1.0038042    10.572224 
  464500    304.19803    305.80686    303.57485    -239196.3   0.99590738    10.626906 
  465000    304.01147    300.42712    306.07184   -239166.47    1.0045795    10.566902 
  465500      305.317    301.13861    307.68523   -239216.49     1.021496    10.452785 
  466000    299.95172    305.83484    297.11681   -239267.49    1.0355416    10.360868 
  466500    293.78338    297.39189     292.1197   -239282.09     1.032135    10.382932 
  467000    299.32154    294.22906    302.15805   -239208.64    1.0176607    10.478325 
  467500    299.04022    292.13554    302.81303   -239264.15    1.0143337    10.500636 
  468000    306.68645    315.81864    302.17713   -239184.43    1.0283067    10.407901 
  468500    301.40988    292.37197    306.28671   -239324.96    1.0376217    10.347466 
  469000    291.77436    275.49588    300.38629   -239293.61    1.0414982    10.322636 
  469500    303.39168    299.99196    305.35622   -239233.26    1.0450692    10.299923 
  470000    305.28616    310.51639     302.7923   -239241.07    1.0410376    10.325576 
  470500      298.928    302.80032    297.13152   -239287.15    1.0394311    10.335853 
  471000    307.73712    306.27416    308.70376   -239213.53    1.0385495    10.341507 
  471500    306.05008    306.23784    306.16254   -239173.96    1.0518819    10.257023 
  472000    305.52619     297.0247    310.12862   -239237.49      1.05839    10.216555 
  472500    296.62701      297.053     296.6099   -239344.46    1.0464045    10.291471 
  473000    296.69209    295.87722    297.31626   -239260.86    1.0301747    10.395694 
  473500    302.42885    314.03606     296.6376   -239233.33    1.0247733    10.431112 
  474000    289.41448    278.68704    295.15619   -239384.99    1.0373185    10.349417 
  474500    292.55458    299.22826    289.30607   -239264.95    1.0558083    10.232549 
  475000    304.56266    304.29723    304.90828   -239237.11    1.0679971     10.15772 
  475500    300.16749    297.38568     301.8105   -239304.37    1.0678667    10.158512 
  476000     301.7281    312.87279    296.17539   -239295.02    1.0547198    10.239315 
  476500    300.07198     296.0302    302.36604   -239323.57    1.0252776     10.42779 
  477000    298.81294    294.33191    301.33312   -239268.42    1.0048441    10.565087 
  477500    297.83661    303.39833    295.16634   -239268.32   0.98151963    10.728797 
  478000    295.11051     294.0497    295.86069   -239300.85   0.98514021    10.702877 
  478500    295.86372    284.23885     302.0736   -239373.09    1.0033505    10.575342 
  479000    304.51768    308.28676    302.77836    -239274.9    1.0221908    10.448179 
  479500    304.13463    294.38922    309.37893   -239325.33    1.0284886     10.40671 
  480000    304.89264    307.97918     303.5063    -239314.7    1.0217298    10.451234 
  480500    303.94479    291.52133    310.57289   -239293.26    1.0185594    10.472323 
  481000    296.75963    303.17067    293.64973   -239406.15    1.0129473    10.509977 
  481500    296.19595    290.33127    299.42937   -239424.48    1.0074871    10.547015 
  482000    296.21052    305.09362    291.82275   -239376.13    1.0137293    10.504705 
  482500    300.42807     308.0409    296.69962   -239311.79    1.0160293    10.489247 
  483000    299.42347    307.07502    295.67432   -239373.74    1.0293653    10.400978 
  483500    295.40484    288.58043    299.13368   -239451.48     1.033713    10.372693 
  484000    290.98652     292.7414    290.27882   -239493.53    1.0334782    10.374214 
  484500    296.63477    301.17619    294.49094   -239382.23    1.0190731    10.468897 
  485000    295.08823     284.9186    300.54556   -239494.66    1.0249002    10.430276 
  485500    300.19726    305.19038    297.82244   -239420.29    1.0347487     10.36599 
  486000    299.26493    306.62348    295.66709   -239482.67    1.0327263    10.379092 
  486500    301.22196     307.2427     298.3168   -239442.66    1.0221055    10.448743 
  487000    297.39202    303.65456    294.35929   -239324.39    1.0115991    10.519085 
  487500    301.10823    303.06785    300.30165   -239359.95    1.0085068    10.540068 
  488000    305.92983    302.90127     307.7043   -239446.96    1.0166301    10.485221 
  488500    305.69498    299.77932    308.96125   -239380.34    1.0415199    10.322497 
  489000     302.3979    292.34503     307.7999   -239374.29    1.0660613    10.169491 
  489500    292.56638       291.45    293.34354   -239465.68    1.0581155    10.218253 
  490000    287.28167    299.19307    281.32285   -239589.72    1.0486711    10.277172 
  490500    298.03206    315.37085    289.27589      -239432    1.0405212    10.328876 
  491000    291.11068    296.64793    288.44846   -239475.46    1.0335345    10.373849 
  491500    303.95182    299.68451    306.36508   -239284.43    1.0075059    10.546886 
  492000    303.05527    299.12486    305.29381   -239297.82     0.989618    10.671082 
  492500    297.79275    294.18564    299.86061    -239386.5   0.99656747    10.622302 
  493000    305.15264    307.54999    304.12263   -239316.44    1.0263011    10.421056 
  493500    302.64623    306.37891    300.92445   -239350.03    1.0542566    10.242199 
  494000    295.39194    297.61368      294.446   -239384.55    1.0431756    10.311948 
  494500    288.75055    287.75685     289.4617   -239371.12     1.021342    10.453807 
  495000    298.25102    307.57098     293.6389   -239336.11    1.0206472     10.45842 
  495500    297.84672    295.16269    299.43761   -239329.32    1.0190224    10.469235 
  496000    303.10725    292.64229    308.72268   -239279.97    1.0171176    10.481957 
  496500    285.02863    279.40111    288.13185   -239369.38    1.0116342    10.518848 
  497000    295.26946    292.45577    296.92559    -239295.9    1.0153185    10.494017 
  497500    292.21017    301.13062    287.80036    -239396.3    1.0276564    10.412161 
  498000    290.34414    298.83424    286.15545   -239413.39     1.042892    10.313752 
  498500    300.45338    304.38389    298.62786   -239254.65    1.0335636    10.373661 
  499000    302.08636    301.19202    302.75529   -239222.22     1.017187    10.481493 
  499500    308.15066    306.90302    309.00631   -239238.84    1.0258552    10.423988 
  500000    300.91087    313.69762    294.50904   -239201.06      1.04071    10.327669 
  500500    305.44465    303.38458     306.7183   -239244.27    1.0528192    10.251164 
  501000    300.90935    304.68631     299.1635   -239326.01    1.0381759    10.343905 
Loop time of 23977 on 2 procs for 500000 steps with 2596 atoms

Performance: 1.802 ns/day, 13.321 hours/ns, 20.853 timesteps/s
99.7% CPU use with 2 MPI tasks x no OpenMP threads

MPI task timing breakdown:
Section |  min time  |  avg time  |  max time  |%varavg| %total
---------------------------------------------------------------
Pair    | 122.74     | 7526.7     | 14931      |8534.2 | 31.39
Bond    | 2.1686     | 21.305     | 40.442     | 414.6 |  0.09
Kspace  | 1157       | 8391.5     | 15626      |7897.5 | 35.00
Neigh   | 7576.5     | 7576.7     | 7576.8     |   0.2 | 31.60
Comm    | 78.531     | 276.7      | 474.86     |1191.3 |  1.15
Output  | 3.4324     | 3.9974     | 4.5624     |  28.3 |  0.02
Modify  | 163.92     | 169.9      | 175.88     |  45.9 |  0.71
Other   |            | 10.14      |            |       |  0.04

Nlocal:    1298 ave 2596 max 0 min
Histogram: 1 0 0 0 0 0 0 0 0 1
Nghost:    4235.5 ave 4558 max 3913 min
Histogram: 1 0 0 0 0 0 0 0 0 1
Neighs:    259266 ave 518533 max 0 min
Histogram: 1 0 0 0 0 0 0 0 0 1
FullNghs:  153097 ave 306194 max 0 min
Histogram: 1 0 0 0 0 0 0 0 0 1

Total # of neighbors = 518533
Ave neighs/atom = 199.743
Ave special neighs/atom = 1.03082
Neighbor list builds = 100000
Dangerous builds not checked
unfix           rlx1
unfix           rlx2
unfix 			rigid
#write_data      rlx.lmp

########################################################
Total wall time: 6:40:15
