LAMMPS (31 Mar 2017)
# MD Run Graphene&CarbonNanotube

dimension	3
boundary	p p p

units       real
atom_style	full

read_data  ethanol.lammps
  orthogonal box = (-3 -2.338 -3) to (3 2.338 3)
  5 by 2 by 2 MPI processor grid
  reading atoms ...
  9 atoms
  scanning bonds ...
  4 = max bonds/atom
  scanning angles ...
  6 = max angles/atom
  scanning impropers ...
  12 = max impropers/atom
  reading bonds ...
  8 bonds
  reading angles ...
  13 angles
  reading impropers ...
  12 impropers
  4 = max # of 1-2 neighbors
  4 = max # of 1-3 neighbors
  7 = max # of 1-4 neighbors
  8 = max # of special neighbors
replicate 10 10 10
  orthogonal box = (-3 -2.338 -3) to (57 44.422 57)
  2 by 2 by 5 MPI processor grid
  9000 atoms
  8000 bonds
  13000 angles
  12000 impropers
  4 = max # of 1-2 neighbors
  4 = max # of 1-3 neighbors
  7 = max # of 1-4 neighbors
  8 = max # of special neighbors
#read_restart	res.300000

group Hydrogen type 4 5 6 7 8 9
6000 atoms in group Hydrogen
group Oxygen type 3
1000 atoms in group Oxygen
group Carbon type 1 2
2000 atoms in group Carbon
group ethanol union Hydrogen Oxygen Carbon
9000 atoms in group ethanol
group vmd union ethanol
9000 atoms in group vmd

############################
############################

pair_style      lj/cut/coul/long 15.0
pair_coeff      *   *    0.000 0.000
pair_coeff      1   1    0.118 3.905 #C1-C1
pair_coeff      2   2    0.207 3.775 #C2-C2
pair_coeff      3   3    0.170 3.070 #O-O
pair_coeff      1   2    0.156 3.840 #C1-C2
pair_coeff      1   3    0.142 3.488 #C1-O
pair_coeff      2   3    0.188 3.423 #C2-O
kspace_style pppm 1.0e-5

bond_style harmonic
bond_coeff 1 222. 1.52
bond_coeff 2 309. 1.11
bond_coeff 3 428. 1.42
bond_coeff 4 545. 0.94

angle_style harmonic
angle_coeff 1 45.90 109.44
angle_coeff 2 34.60 109.46
angle_coeff 3 35.50 120.00
angle_coeff 4 75.70 109.00
angle_coeff 5 57.50 109.50
angle_coeff 6 35.50 109.50
angle_coeff 7 34.60 109.46

improper_style harmonic
improper_coeff 1  1.30  180
improper_coeff 2  0.14  60
improper_coeff 3  0.14 -60
improper_coeff 4  0.16  180
improper_coeff 5  0.16  60
improper_coeff 6  0.16 -60
improper_coeff 7  0.16 -60
improper_coeff 8  0.16  180
improper_coeff 9  0.16  60
improper_coeff 10 0.16  60
improper_coeff 11 0.16 -60
improper_coeff 12 0.16 -180

#neighbor       2.0 nsq
neigh_modify    every 1 delay 0 check no
#special_bonds lj/coul 0.0 0.0 0.0

##############################

#compute myRDF Oxygen  rdf 1000 3 3 # O-O
#fix 10 Oxygen  ave/time 10 100 1000 c_myRDF file rdf.dat mode vector #ave running

####################

#variable dl equal 2.8
#variable vp equal ((lx-v_dl)*(ly-v_dl)*(lz-v_dl)) #effective volume
variable Den equal (46.06844*count(Oxygen)/vol*1.66054) #gr/cm3
variable Eb  equal etotal/count(Oxygen)
variable Pb  equal pe/count(Oxygen)

################################## Energies

restart		100000 res

####################

thermo          100
thermo_style    custom step temp pe etotal press v_Pb v_Eb v_Den #lx ly lz

dump           1 vmd xyz 1000 dump.xyz
dump_modify	   1 sort id element C C O H H H H H H

#################### relaxing

#timestep 		0.01
#velocity   	vmd create 10 21234 dist gaussian mom yes rot yes
#fix        	rlx vmd nvt temp 300 300 1

#run 			1000
#unfix			rlx

# -------------------

timestep 		1.0
velocity   		vmd create 10 21234 dist gaussian mom yes rot yes
fix        		rlx vmd npt temp 300 300 100 iso 1 1 1000 #z 1 1 1000 couple xz

run 			200000
PPPM initialization ...
WARNING: Using 12-bit tables for long-range coulomb (../kspace.cpp:321)
  G vector (1/distance) = 0.182631
  grid = 24 18 24
  stencil order = 5
  estimated absolute RMS force accuracy = 0.00256539
  estimated relative force accuracy = 7.72561e-06
  using double precision FFTs
  3d grid and FFT values/proc = 2618 864
Neighbor list info ...
  update every 1 steps, delay 0 steps, check no
  max neighbors/atom: 2000, page size: 100000
  master list distance cutoff = 17
  ghost atom cutoff = 17
  binsize = 8.5, bins = 8 6 8
  1 neighbor lists, perpetual/occasional/extra = 1 0 0
  (1) pair lj/cut/coul/long, perpetual
      attributes: half, newton on
      pair build: half/bin/newton
      stencil: half/bin/3d/newton
      bin: standard
Per MPI rank memory allocation (min/avg/max) = 14.3 | 14.32 | 14.34 Mbytes
Step Temp PotEng TotEng Press v_Pb v_Eb v_Den 
       0           10    18833.296    19101.539   -12228.406    18.833296    19.101539   0.45443926 
     100    426.10213    6798.6602    18228.556   -1892.1293    6.7986602    18.228556   0.45501683 
     200    101.21382    17354.355    20069.346     13335.91    17.354355    20.069346   0.45991454 
     300    441.73524    7815.3811    19664.624   -4814.5643    7.8153811    19.664624   0.46808251 
     400    209.32322    14524.585    20139.536   -19228.486    14.524585    20.139536   0.47790786 
     500    320.08783    11611.377    20197.512    5499.5522    11.611377    20.197512   0.48905818 
     600     326.3114    11526.314    20279.392    21023.797    11.526314    20.279392   0.49845545 
     700    335.01285    10588.753    19575.242   -18617.356    10.588753    19.575242   0.50547531 
     800    273.97536    11607.783    18956.983   -16705.784    11.607783    18.956983     0.512025 
     900    364.12346    8233.4467    18000.807    4868.1061    8.2334467    18.000807   0.51852858 
    1000    297.83897    9575.2739    17564.599      10704.5    9.5752739    17.564599   0.52479794 
    1100    281.78913    9458.0461    17016.845    6021.9777    9.4580461    17.016845   0.53069749 
    1200    339.39839    7242.5934    16346.721   -5650.0106    7.2425934    16.346721   0.53677345 
    1300    290.30545    8263.5256    16050.769   -7011.0743    8.2635256    16.050769   0.54228338 
    1400    287.17567    8021.1488    15724.438   -6300.7975    8.0211488    15.724438   0.54756402 
    1500    310.89143    7130.2425     15469.69   -5102.5215    7.1302425     15.46969   0.55347845 
    1600    303.56334    7169.0254    15311.902    9538.6329    7.1690254    15.311902   0.55887535 
    1700    293.60606    7284.0658    15159.846    5596.0506    7.2840658    15.159846   0.56390892 
    1800     299.5323     7018.071    15052.818   -6954.6614     7.018071    15.052818   0.56916422 
    1900    312.10556    6513.2225    14885.239    3268.7643    6.5132225    14.885239   0.57388205 
    2000    291.95944     6927.865    14759.475   -4407.9333     6.927865    14.759475   0.57867068 
    2100    302.58626    6525.0835    14641.751   -7170.9289    6.5250835    14.641751   0.58332039 
    2200    300.27649    6502.7832    14557.493    2760.6092    6.5027832    14.557493   0.58781693 
    2300    297.77471    6543.0506    14530.652   -525.80275    6.5430506    14.530652   0.59250242 
    2400    301.28159    6441.7632    14523.434    535.79293    6.4417632    14.523434   0.59703544 
    2500    298.23499    6541.3244    14541.272    2995.5213    6.5413244    14.541272   0.60170277 
    2600    308.74097    6145.8493    14427.613   -3315.3899    6.1458493    14.427613    0.6063251 
    2700    287.80233    6602.7791    14322.878   -819.89385    6.6027791    14.322878   0.61098682 
    2800    304.29854    6016.2579    14178.856   -2658.1454    6.0162579    14.178856   0.61594148 
    2900    302.96794    6108.8238     14235.73   -2050.4685    6.1088238     14.23573   0.62076207 
    3000    296.50036    6248.4466    14201.864     1943.401    6.2484466    14.201864   0.62507839 
    3100    295.78517    6147.5366    14081.769   -3265.1317    6.1475366    14.081769    0.6290023 
    3200    303.52968    5824.9099    13966.884     822.9281    5.8249099    13.966884   0.63353511 
    3300    302.91783    5782.4134    13907.975    1182.7227    5.7824134    13.907975   0.63759007 
    3400    293.57892    5998.1714    13873.223    -3168.229    5.9981714    13.873223   0.64175623 
    3500    297.33765    5900.8283    13876.705    2669.5491    5.9008283    13.876705   0.64598094 
    3600    305.99409    5703.1748    13911.255   -414.54246    5.7031748    13.911255   0.64979626 
    3700    305.84392    5724.8917    13928.944   -2482.1098    5.7248917    13.928944   0.65375776 
    3800    304.71019    5600.0152    13773.656    1320.9899    5.6000152    13.773656   0.65773787 
    3900    292.49663    5760.4694    13606.489   -3432.3231    5.7604694    13.606489   0.66175113 
    4000    302.85575    5436.8303    13560.727   -70.238642    5.4368303    13.560727   0.66562954 
    4100    303.98293    5456.7645    13610.897    1764.4525    5.4567645    13.610897   0.66931085 
    4200    294.37634    5796.8597    13693.302   -2485.1565    5.7968597    13.693302   0.67295099 
    4300    314.50347    5227.0705    13663.409    342.88708    5.2270705    13.663409   0.67629649 
    4400    295.46165    5577.7501    13503.305   -1845.8525    5.5777501    13.503305    0.6801973 
    4500    297.58563    5429.4765    13412.006   -1499.7166    5.4294765    13.412006    0.6849121 
    4600    301.09182    5302.0708    13378.651    2125.2385    5.3020708    13.378651   0.69027579 
    4700    300.07395    5329.4252    13378.702   -1888.0594    5.3294252    13.378702   0.69497232 
    4800    299.32716    5243.1412    13272.386    979.65015    5.2431412    13.272386   0.69904999 
    4900    301.58798     5101.077    13190.966     1386.605     5.101077    13.190966   0.70240102 
    5000    290.26379    5449.9816    13236.107   -2263.0434    5.4499816    13.236107   0.70635306 
    5100    309.09933    5086.1589    13377.535     815.1813    5.0861589    13.377535   0.71016905 
    5200     295.8635    5472.1641    13408.498   -1774.5819    5.4721641    13.408498   0.71369999 
    5300    308.72095    4956.5951    13237.822   -1323.3606    4.9565951    13.237822   0.71701283 
    5400    297.00753      5230.99    13198.012    1564.0908      5.23099    13.198012   0.72089816 
    5500    296.79054    5185.9318    13147.133   -374.88888    5.1859318    13.147133   0.72486218 
    5600    304.90164    4955.3045     13134.08    870.24725    4.9553045     13.13408   0.72862164 
    5700    295.92319    5179.9357    13117.871   -921.76612    5.1799357    13.117871   0.73234237 
    5800    301.07862    4945.9746    13022.201   -2652.7501    4.9459746    13.022201   0.73651847 
    5900    304.43721    4858.2309    13024.549    445.40713    4.8582309    13.024549   0.74008913 
    6000    294.73779    5072.1537    12978.291   -996.55816    5.0721537    12.978291   0.74262234 
    6100     305.6254    4699.5553    12897.746   -334.39274    4.6995553    12.897746   0.74520011 
    6200    296.19259    4917.7255    12862.887    1515.2185    4.9177255    12.862887   0.74851993 
    6300    299.81622    4676.7035    12719.067   -1123.3328    4.6767035    12.719067   0.75201844 
    6400    295.83485    4742.1965    12677.762   -1253.3538    4.7421965    12.677762   0.75607804 
    6500    301.04103    4744.6111    12819.829   -1852.3288    4.7446111    12.819829   0.76077155 
    6600    307.85845    4643.1409    12901.231   -1025.4372    4.6431409    12.901231   0.76473426 
    6700    297.82617     4862.895    12851.876     1505.988     4.862895    12.851876   0.76760127 
    6800    303.72625    4586.5035     12733.75    161.16486    4.5865035     12.73375   0.76940626 
    6900    293.86998    4861.5353    12744.395   -644.66003    4.8615353    12.744395   0.77089046 
    7000    303.59521     4541.643    12685.375    139.21221     4.541643    12.685375   0.77275755 
    7100    299.64366     4684.851    12722.585   -1693.5471     4.684851    12.722585   0.77503172 
    7200    300.15342    4831.6642    12883.072   -579.63387    4.8316642    12.883072   0.77799553 
    7300    305.71263     4668.519    12869.049   -983.60625     4.668519    12.869049   0.78076458 
    7400    303.63367    4556.4581    12701.222    152.77211    4.5564581    12.701222   0.78319407 
    7500     299.1009    4610.4602    12633.635    2011.6262    4.6104602    12.633635   0.78539264 
    7600    297.14238    4667.4279    12638.067   -785.21734    4.6674279    12.638067   0.78702327 
    7700    303.97698    4493.6739    12647.647    81.548535    4.4936739    12.647647    0.7893345 
    7800    297.51793    4571.8951    12552.608     855.7693    4.5718951    12.552608   0.79031241 
    7900    301.24157    4322.5243    12403.121   -1176.6996    4.3225243    12.403121   0.79033205 
    8000    294.66289     4529.874    12434.003   -735.18105     4.529874    12.434003   0.79098215 
    8100    298.89359    4530.3202    12547.935   -546.45544    4.5303202    12.547935   0.79266064 
    8200    301.52685     4607.528    12695.777   -1008.4493     4.607528    12.695777   0.79442179 
    8300    300.85155    4604.7934    12674.929    66.392826    4.6047934    12.674929   0.79539301 
    8400    308.68158    4296.4183    12576.588    237.66009    4.2964183    12.576588   0.79723379 
    8500    296.21844    4523.1505    12469.006   -257.17404    4.5231505    12.469006   0.79946775 
    8600    301.26798    4309.9204    12391.226    253.58326    4.3099204    12.391226   0.80276525 
    8700    299.09865    4366.3828    12389.498   -255.08674    4.3663828    12.389498   0.80524568 
    8800    302.29526    4386.9329    12495.795    948.09246    4.3869329    12.495795   0.80647296 
    8900    302.85694    4557.0757    12681.004   -53.564965    4.5570757    12.681004    0.8073993 
    9000    300.53207    4572.1007    12633.666   -977.28204    4.5721007    12.633666   0.80754851 
    9100    303.55782    4358.1934    12500.922    27.949992    4.3581934    12.500922   0.80790583 
    9200    300.07436    4406.5062    12455.794    280.08887    4.4065062    12.455794   0.80884308 
    9300    302.39433    4323.6237    12435.143    597.83172    4.3236237    12.435143   0.80957522 
    9400    299.82013    4308.4304    12350.898    344.07159    4.3084304    12.350898   0.81109624 
    9500    294.43459    4308.4865    12206.491   -1284.4128    4.3084865    12.206491   0.81277943 
    9600    294.99989    4324.8633    12238.032   -610.65723    4.3248633    12.238032   0.81440327 
    9700     301.1069    4302.1159    12379.101   -718.62024    4.3021159    12.379101   0.81620326 
    9800    307.64682    4137.0586    12389.472   -339.30556    4.1370586    12.389472    0.8171267 
    9900    298.97406    4338.0711    12357.844    1788.9895    4.3380711    12.357844   0.81721257 
   10000     301.9165    4178.7345    12277.436    797.00018    4.1787345    12.277436   0.81713138 
   10100    299.08057    4183.2965    12205.926   -32.250236    4.1832965    12.205926    0.8176697 
   10200    294.95294    4238.5632    12150.472   -121.39537    4.2385632    12.150472   0.81883066 
   10300    299.88339    4042.1982    12086.363   -413.82534    4.0421982    12.086363   0.82036518 
   10400    303.31575    4051.8242     12188.06   -612.80891    4.0518242     12.18806   0.82200424 
   10500    300.26766    4234.0077    12288.481   -126.43574    4.2340077    12.288481    0.8231482 
   10600    301.82663    4113.8858    12210.177   -755.03888    4.1138858    12.210177   0.82335986 
   10700    296.04531    4124.0901    12065.301    76.605126    4.1240901    12.065301   0.82387194 
   10800    300.89129    3983.3551    12054.556    862.37645    3.9833551    12.054556   0.82507904 
   10900    298.52282    4132.9895    12140.658     25.87224    4.1329895    12.140658   0.82664036 
   11000     303.9295    4008.2626    12160.962    1068.9348    4.0082626    12.160962   0.82880868 
   11100    299.47624     4215.518    12248.761    747.50131     4.215518    12.248761   0.82954062 
   11200    301.71529    4196.7079    12290.012    133.83379    4.1967079    12.290012   0.82978605 
   11300    302.23068    4116.9679    12224.097   -377.58692    4.1169679    12.224097   0.83094561 
   11400    299.91197    4011.5308    12056.462   -396.91343    4.0115308    12.056462   0.83177635 
   11500    296.97938    4002.1335      11968.4    -673.3584    4.0021335      11.9684    0.8325174 
   11600    295.88499    4064.8558    12001.766   -735.48534    4.0648558    12.001766   0.83315864 
   11700    308.66227    3818.1555    12097.808    831.80809    3.8181555    12.097808   0.83395069 
   11800    298.31029    4195.3962    12197.364    509.61955    4.1953962    12.197364   0.83522699 
   11900    303.57528    4154.1621    12297.359    -1487.297    4.1541621    12.297359   0.83531941 
   12000    303.45937    4202.2434    12342.331     271.2818    4.2022434    12.342331   0.83523675 
   12100    305.94665    3946.3353    12153.143    249.32486    3.9463353    12.153143    0.8347834 
   12200    299.10328    4041.3404    12064.579    -375.2137    4.0413404    12.064579   0.83453968 
   12300    299.13882    4008.9815    12033.174    257.32358    4.0089815    12.033174   0.83401776 
   12400    294.61162    4142.3248    12045.078   -941.22174    4.1423248    12.045078   0.83316216 
   12500    303.46529    3960.3877    12100.635    477.91748    3.9603877    12.100635   0.83451584 
   12600    309.03818    3928.2603    12217.996    761.69172    3.9282603    12.217996   0.83753325 
   12700    295.28408    4216.1954    12136.987   -453.42994    4.2161954    12.136987   0.84058053 
   12800    299.92099    3976.1519    12021.325    329.24165    3.9761519    12.021325   0.84299219 
   12900    302.40756    3855.6451    11967.519   -581.74374    3.8556451    11.967519   0.84513845 
   13000    298.37182    3964.2268    11967.845    -1208.291    3.9642268    11.967845   0.84649591 
   13100    301.41793     3895.632     11980.96    1620.8997     3.895632     11.98096   0.84753035 
   13200    301.18617     4000.796    12079.907    338.75313     4.000796    12.079907   0.84661741 
   13300    297.75383    4041.0217    12028.063   -157.05572    4.0410217    12.028063   0.84483966 
   13400    303.52257    3732.0548    11873.838    1312.4095    3.7320548    11.873838   0.84274465 
   13500    297.01586    3894.1535    11861.399    928.27897    3.8941535    11.861399    0.8410366 
   13600    301.37576    3919.2071    12003.404   -41.136156    3.9192071    12.003404   0.84064965 
   13700    302.39391    4022.5339    12134.042   -372.75925    4.0225339    12.134042   0.84071574 
   13800    303.27302    3939.7323    12074.822    -1020.906    3.9397323    12.074822     0.841055 
   13900    298.28441    4005.5903    12006.864   -933.97098    4.0055903    12.006864   0.84174764 
   14000    304.70632    3761.3882    11934.925    312.46462    3.7613882    11.934925   0.84222235 
   14100    293.40715    4068.6683    11939.113    886.21062    4.0686683    11.939113   0.84352827 
   14200    304.79704    3788.7665    11964.737    361.06746    3.7887665    11.964737   0.84445589 
   14300    300.19357    3838.5033    11890.989     549.9608    3.8385033    11.890989   0.84380669 
   14400    296.85614    3782.1622    11745.123    682.60649    3.7821622    11.745123    0.8437831 
   14500    295.16842    3863.9423    11781.631   -27.296315    3.8639423    11.781631    0.8441843 
   14600     301.1423    3824.0146    11901.949    305.88044    3.8240146    11.901949   0.84526845 
   14700    305.76846     3744.688    11946.716   -329.39298     3.744688    11.946716   0.84638502 
   14800    298.79993    3884.1246    11899.226   -1380.3831    3.8841246    11.899226   0.84751197 
   14900    297.22189    3875.2914    11848.063   -256.81906    3.8752914    11.848063   0.84828651 
   15000     302.6526    3696.9077    11815.355    241.31611    3.6969077    11.815355   0.84907951 
   15100    302.53549    3761.2601    11876.566   -459.14891    3.7612601    11.876566   0.85023762 
   15200    295.37159    4003.4481    11926.587    136.04553    4.0034481    11.926587   0.85116927 
   15300    304.48032    3735.1146    11902.589    209.00956    3.7351146    11.902589     0.851689 
   15400    302.10918    3795.5312    11899.401     482.0564    3.7955312    11.899401   0.85272352 
   15500    300.58955    3705.3767    11768.484    314.12018    3.7053767    11.768484   0.85287948 
   15600    296.69563    3718.0343     11676.69    132.19127    3.7180343     11.67669   0.85266545 
   15700    298.02071    3727.7109    11721.911    493.69443    3.7277109    11.721911   0.85155935 
   15800    302.98208    3721.0677    11848.353   -43.068489    3.7210677    11.848353   0.84991118 
   15900    296.53523    3983.3476    11937.701    249.90204    3.9833476    11.937701   0.84882874 
   16000    304.13825    3728.4617     11886.76   -159.90411    3.7284617     11.88676   0.84855906 
   16100    299.15069    3751.6235    11776.134   -326.75979    3.7516235    11.776134    0.8491693 
   16200    296.91317    3728.4996    11692.991   -1218.3756    3.7284996    11.692991   0.85033719 
   16300    298.07475    3733.0742    11728.724    69.598322    3.7330742    11.728724   0.85161573 
   16400     300.1204    3755.8509    11806.374     400.9846    3.7558509    11.806374   0.85219922 
   16500    302.67706    3712.0614    11831.165   -95.118659    3.7120614    11.831165   0.85199101 
   16600    304.53409    3635.4978    11804.415    727.57285    3.6354978    11.804415   0.85188575 
   16700    292.02699    3952.6626    11786.085    239.61371    3.9526626    11.786085    0.8523898 
   16800    305.44304    3385.0664    11578.365    639.59881    3.3850664    11.578365   0.85387136 
   16900    293.49155    3662.6467    11535.355   -308.84773    3.6626467    11.535355   0.85587988 
   17000    295.96126    3699.2888    11638.245   -881.89143    3.6992888    11.638245   0.85780245 
   17100    297.40681    3735.3245    11713.057   -680.45172    3.7353245    11.713057   0.85945694 
   17200    299.14135    3737.3025    11761.563   -506.36109    3.7373025    11.761563   0.86038369 
   17300    308.46562    3507.4912    11781.868    926.50669    3.5074912    11.781868   0.86045416 
   17400    296.73085    3842.8863    11802.486     42.58402    3.8428863    11.802486   0.85958475 
   17500    299.16778    3619.1426    11644.112   -526.47816    3.6191426    11.644112   0.85986963 
   17600    293.65853    3743.5597    11620.747   -233.16137    3.7435597    11.620747   0.86015205 
   17700    303.99201    3567.2854    11721.661    713.56966    3.5672854    11.721661   0.86059861 
   17800     307.5134    3559.0638    11807.898    507.28218    3.5590638    11.807898   0.86069126 
   17900     292.6293    3968.6693    11818.248    682.95901    3.9686693    11.818248   0.86030119 
   18000    300.43213    3710.8195    11769.704   -253.53848    3.7108195    11.769704   0.85971902 
   18100    301.79348    3585.7777    11681.179   -776.73584    3.5857777    11.681179   0.86025791 
   18200    293.90358    3756.2698     11640.03   -1300.0838    3.7562698     11.64003   0.86119021 
   18300    302.63536    3458.8179    11576.803   -516.27091    3.4588179    11.576803   0.86166517 
   18400    297.56556    3661.3268    11643.318    1289.3898    3.6613268    11.643318   0.86262765 
   18500    298.25243    3725.4983    11725.914    737.25623    3.7254983    11.725914   0.86315027 
   18600    303.26097    3673.2184    11807.984    1313.8322    3.6732184    11.807984   0.86341944 
   18700    307.41235    3502.2363     11748.36    536.67955    3.5022363     11.74836   0.86226754 
   18800    290.09273    3822.7326     11604.27   -1562.7216    3.8227326     11.60427   0.85986679 
   18900    305.48467    3376.3319    11570.747    658.76451    3.3763319    11.570747   0.85828489 
   19000    297.92594    3704.7987    11696.456   -99.805989    3.7047987    11.696456   0.85713691 
   19100    298.70922    3760.0251    11772.694   -1186.5942    3.7600251    11.772694   0.85713292 
   19200    301.02737    3701.0293    11775.881   -122.21585    3.7010293    11.775881   0.85881863 
   19300    299.14993    3627.8941    11652.384   -930.24462    3.6278941    11.652384   0.85995321 
   19400    299.53861    3433.8256    11468.742   -25.280643    3.4338256    11.468742   0.86142395 
   19500    299.69399    3491.7751     11530.86    1562.9474    3.4917751     11.53086   0.86401814 
   19600    300.24661    3592.7318     11646.64   -15.865281    3.5927318     11.64664   0.86711515 
   19700    299.22206    3707.0709    11733.496   -548.80793    3.7070709    11.733496   0.87063682 
   19800    310.30349    3293.4063    11617.083    974.87217    3.2934063    11.617083   0.87348015 
   19900    292.39986    3644.0737    11487.498   -255.53272    3.6440737    11.487498   0.87414425 
   20000    298.04073    3507.4755    11502.212   -333.48374    3.5074755    11.502212    0.8719494 
   20100    304.10324    3451.3186    11608.678     -384.231    3.4513186    11.608678   0.86856952 
   20200     299.6233    3663.5535    11700.742    611.12923    3.6635535    11.700742   0.86563968 
   20300    302.45162    3535.6179    11648.674     139.3611    3.5356179    11.648674   0.86302609 
   20400    304.59264    3327.3209    11497.808    324.30902    3.3273209    11.497808   0.86329749 
   20500    291.50184    3603.6313    11422.967    104.22112    3.6036313    11.422967    0.8655924 
   20600     294.6704    3583.1106    11487.441   -1067.9188    3.5831106    11.487441   0.86823634 
   20700    306.13351    3381.3665    11593.187   -642.78003    3.3813665    11.593187   0.87111144 
   20800    297.99341    3595.6508    11589.118   -60.453088    3.5956508    11.589118   0.87356058 
   20900    300.63239    3453.9337     11518.19   -727.28578    3.4539337     11.51819   0.87425538 
   21000    298.54067    3446.6471    11454.794    358.91523    3.4466471    11.454794   0.87404528 
   21100    301.18358    3352.8838    11431.925    222.93112    3.3528838    11.431925   0.87298275 
   21200    299.47542     3483.162    11516.383    487.44835     3.483162    11.516383   0.87249344 
   21300    298.47994    3661.5018     11668.02    45.429118    3.6615018     11.66802   0.87189901 
   21400    302.05857    3541.8671     11644.38    402.80823    3.5418671     11.64438   0.87207533 
   21500     299.3701    3471.8868    11502.283    273.69161    3.4718868    11.502283   0.87230969 
   21600    300.55455    3408.9191    11471.087   -798.11897    3.4089191    11.471087   0.87177739 
   21700    297.38899     3543.703    11520.957   -1549.5242     3.543703    11.520957   0.87082115 
   21800    300.64605    3477.9504    11542.573   -402.63654    3.4779504    11.542573   0.86910787 
   21900    301.01724    3498.4097    11572.989   -157.66222    3.4984097    11.572989   0.86756655 
   22000    299.11866    3667.6389     11691.29     465.7112    3.6676389     11.69129    0.8677395 
   22100    305.83815    3514.7966    11718.694   -153.60073    3.5147966    11.718694    0.8685761 
   22200    298.58193    3629.8349    11639.089   -735.96602    3.6298349    11.639089   0.87109431 
   22300    301.67265    3407.4144    11499.575   -1423.5978    3.4074144    11.499575    0.8737098 
   22400     296.2651    3503.8737     11450.98   -317.92499    3.5038737     11.45098    0.8772308 
   22500    302.80845    3281.5565    11404.184    436.82868    3.2815565    11.404184   0.88025363 
   22600    299.26661    3442.2489    11469.869     160.9244    3.4422489    11.469869   0.88106901 
   22700    300.31805    3576.8657     11632.69    378.70855    3.5768657     11.63269   0.88108223 
   22800    302.52555    3528.3501    11643.389    992.45204    3.5283501    11.643389   0.88001496 
   22900    301.28366    3430.1955    11511.922    255.08693    3.4301955    11.511922   0.87766787 
   23000    302.86908    3260.2902    11384.544   -67.595104    3.2602902    11.384544   0.87542423 
   23100    294.83107    3516.2868    11424.927    -385.4145    3.5162868    11.424927   0.87375907 
   23200    294.40509    3609.9016    11507.115   -719.29149    3.6099016    11.507115   0.87245947 
   23300    305.61407    3357.0307    11554.917   -215.75236    3.3570307    11.554917   0.87150683 
   23400    303.27196    3394.2317    11529.293    778.98286    3.3942317    11.529293   0.87062294 
   23500     292.5272    3501.6183    11348.458     -373.404    3.5016183    11.348458   0.86991379 
   23600     300.9344    3259.0998    11331.457   -840.88028    3.2590998    11.331457   0.87005077 
   23700    296.96952    3536.1077     11502.11    1127.6212    3.5361077     11.50211   0.87162375 
   23800    304.89915    3357.9769    11536.686   -897.17561    3.3579769    11.536686   0.87321568 
   23900    302.83479    3381.3791    11504.713   -793.66527    3.3813791    11.504713   0.87499367 
   24000    294.07883    3544.4897    11432.951    870.33428    3.5444897    11.432951   0.87631402 
   24100    295.34999    3340.9582    11263.518   -209.87123    3.3409582    11.263518   0.87711015 
   24200    294.58913    3347.1015    11249.252    1497.1092    3.3471015    11.249252   0.87784621 
   24300    304.04259    3329.4203    11485.153    810.56618    3.3294203    11.485153   0.87817098 
   24400    301.12542    3447.3689     11524.85    31.811917    3.4473689     11.52485   0.87792583 
   24500    301.85524    3374.0898    11471.148    82.894812    3.3740898    11.471148    0.8772967 
   24600    301.55738    3257.6879    11346.756   -1687.1222    3.2576879    11.346756   0.87714577 
   24700     291.1125    3634.9896    11443.881   -973.32176    3.6349896    11.443881   0.87821377 
   24800    302.79572    3446.8882    11569.174    10.925372    3.4468882    11.569174   0.87998085 
   24900    303.75735    3402.8907    11550.972   -875.54163    3.4028907    11.550972   0.88153397 
   25000    299.74866     3487.015    11527.566    1230.0245     3.487015    11.527566   0.88305068 
   25100    301.24594    3368.0053     11448.72    362.44249    3.3680053     11.44872    0.8838508 
   25200    297.94215    3370.6738    11362.766   -10.674176    3.3706738    11.362766   0.88386777 
   25300    293.90541    3466.9379    11350.748    679.16068    3.4669379    11.350748   0.88300733 
   25400    306.05181    3322.9319     11532.56    299.72189    3.3229319     11.53256   0.88169966 
   25500    304.31121    3484.1173    11647.055    276.60726    3.4841173    11.647055   0.88012586 
   25600    302.77442    3457.3708    11579.085   -930.81698    3.4573708    11.579085   0.87862382 
   25700    295.45113     3544.537     11469.81   -905.38882     3.544537     11.46981   0.87860498 
   25800    297.37216    3379.3059    11356.109   -1108.3104    3.3793059    11.356109   0.87944241 
   25900    303.45244    3212.4671    11352.369   -2095.8742    3.2124671    11.352369   0.88138667 
   26000    299.66268    3450.3671    11488.612    306.98174    3.4503671    11.488612   0.88300855 
   26100    298.64668    3626.3995     11637.39    1757.7901    3.6263995     11.63739   0.88442352 
   26200    301.31878    3481.6992    11564.367    1530.3358    3.4816992    11.564367    0.8854174 
   26300    302.28843    3377.9356    11486.614    2182.4458    3.3779356    11.486614   0.88526432 
   26400     303.2547    3227.7239    11362.322   -627.68426    3.2277239    11.362322   0.88390374 
   26500     295.5616    3405.2802    11333.516   -1580.6051    3.4052802    11.333516   0.88129697 
   26600    297.29228    3390.2781    11364.938    4.2870479    3.3902781    11.364938    0.8791343 
   26700    302.09667    3464.1218    11567.656   -1371.3198    3.4641218    11.567656   0.87783212 
   26800    301.35549    3511.2048    11594.858   -127.91061    3.5112048    11.594858   0.87741741 
   26900     303.6917    3333.6909    11480.011    867.52348    3.3336909    11.480011   0.87768209 
   27000    295.95956    3463.7675    11402.678   -367.82915    3.4637675    11.402678   0.87837961 
   27100    297.07584    3388.2049    11357.059    220.96623    3.3882049    11.357059   0.88025323 
   27200    301.35135    3283.1803    11366.722   -630.26194    3.2831803    11.366722   0.88208592 
   27300    297.43249     3431.477    11409.898   -38.285323     3.431477    11.409898   0.88451217 
   27400    308.13605    3220.4631        11486   -205.29487    3.2204631       11.486     0.886219 
   27500    298.04886    3550.3532    11545.308   -735.79908    3.5503532    11.545308   0.88713942 
   27600    304.40469    3218.5277    11383.973    827.65082    3.2185277    11.383973   0.88621082 
   27700    295.08761     3390.135    11305.656   -535.44551     3.390135    11.305656   0.88366156 
   27800    299.33922    3290.5246    11320.092   -717.61912    3.2905246    11.320092   0.88171721 
   27900    298.32753    3436.8573    11439.287    624.32049    3.4368573    11.439287   0.88036151 
   28000    308.14311    3308.3243     11574.05    209.51997    3.3083243     11.57405   0.87918658 
   28100    299.82777    3530.8089    11573.482    -263.4461    3.5308089    11.573482    0.8776829 
   28200    299.25241    3464.5854    11491.825    482.44029    3.4645854    11.491825   0.87733675 
   28300    300.68762    3357.9409    11423.679   -281.47064    3.3579409    11.423679   0.87796778 
   28400    297.23181    3405.1925    11378.231    -456.0174    3.4051925    11.378231   0.87925095 
   28500    300.90982     3288.838    11360.536    1084.2365     3.288838    11.360536   0.88181244 
   28600    301.48454    3337.0488    11424.164    186.33272    3.3370488    11.424164   0.88429825 
   28700    305.30194    3312.8278    11502.342    -163.4532    3.3128278    11.502342    0.8861862 
   28800    299.52261     3510.675    11545.162    1402.0354     3.510675    11.545162     0.886759 
   28900    297.06563     3437.335    11405.915   -1237.5219     3.437335    11.405915   0.88595628 
   29000    300.13246    3219.8187    11270.665   -1126.8397    3.2198187    11.270665   0.88450794 
   29100    300.63679     3199.855    11264.229    571.50553     3.199855    11.264229   0.88301149 
   29200    301.70491    3299.0279    11392.054   -793.14734    3.2990279    11.392054     0.881904 
   29300     302.4494    3348.6714    11461.668   -62.617486    3.3486714    11.461668   0.88106666 
   29400    301.96791    3391.1805    11491.261    188.71869    3.3911805    11.491261   0.88038666 
   29500    295.68136    3544.5823    11476.031   -285.52399    3.5445823    11.476031   0.88146874 
   29600    300.96447     3245.751    11318.915    98.694467     3.245751    11.318915   0.88364828 
   29700    299.34441    3171.7545    11201.462     256.7249    3.1717545    11.201462   0.88660708 
   29800     294.8645    3364.1852    11273.722    -197.5534    3.3641852    11.273722   0.88917567 
   29900    302.24059    3244.7567    11352.152    348.07378    3.2447567    11.352152   0.89081469 
   30000    297.56657    3420.0313    11402.049    216.00798    3.4200313    11.402049   0.89103659 
   30100     301.9365     3244.054    11343.292    1246.8351     3.244054    11.343292   0.89035154 
   30200    296.74921    3196.5832    11156.676    -500.9021    3.1965832    11.156676   0.88848286 
   30300    299.29653    3130.7588    11159.182   -1012.9318    3.1307588    11.159182     0.887196 
   30400    297.27913    3309.7293    11284.037   -192.59802    3.3097293    11.284037    0.8867152 
   30500    299.43781     3334.663    11366.876   -389.06892     3.334663    11.366876   0.88601398 
   30600    298.69464    3388.6562    11400.934    1089.8891    3.3886562    11.400934   0.88556274 
   30700    301.33942    3375.1095    11458.331    838.65885    3.3751095    11.458331   0.88556982 
   30800    302.23726    3455.2598    11562.566   -470.41915    3.4552598    11.562566   0.88611607 
   30900    303.94922    3470.7281    11623.956   -362.62364    3.4707281    11.623956   0.88583013 
   31000    300.11678    3372.9622    11423.388   -453.54345    3.3729622    11.423388    0.8845791 
   31100    298.90043    3313.2758    11331.074    357.43264    3.3132758    11.331074   0.88419819 
   31200    302.16888    3225.1864    11330.658    8.7672515    3.2251864    11.330658   0.88514102 
   31300    295.08203    3449.1307    11364.502    105.87265    3.4491307    11.364502   0.88733665 
   31400    302.72156    3288.5673    11408.864    507.07345    3.2885673    11.408864    0.8910843 
   31500    298.16417     3560.032     11558.08   -519.16073     3.560032     11.55808    0.8935745 
   31600    311.35487    3136.6074    11488.487    525.21885    3.1366074    11.488487   0.89389712 
   31700    292.66333    3498.4775    11348.969    30.941495    3.4984775    11.348969   0.89261758 
   31800    303.72515    3125.7468    11272.964    390.80027    3.1257468    11.272964   0.89041367 
   31900    297.88212    3340.3858    11330.868    404.97204    3.3403858    11.330868   0.88752789 
   32000    298.30684    3440.5528    11442.428   -829.94548    3.4405528    11.442428   0.88560695 
   32100    306.24241    3312.5305    11527.272   -822.57901    3.3125305    11.527272   0.88440357 
   32200    299.32273    3489.6659    11518.792   -192.09001    3.4896659    11.518792   0.88343938 
   32300    303.87965    3116.9113    11268.273   -504.24042    3.1169113    11.268273   0.88279331 
   32400    293.89765    3374.4959    11258.097   -653.36931    3.3744959    11.258097   0.88290571 
   32500    298.73474    3306.8249    11320.178   -30.012361    3.3068249    11.320178   0.88489331 
   32600    303.19908    3291.1614    11424.267   -51.476957    3.2911614    11.424267   0.88745342 
   32700    303.79851    3262.6472    11411.832    369.97667    3.2626472    11.411832   0.89002024 
   32800    291.85408    3450.0172    11278.801    1041.5288    3.4500172    11.278801   0.89263877 
   32900    301.03013    3053.2379    11128.163    1322.7958    3.0532379    11.128163   0.89446896 
   33000    295.49359    3287.3935    11213.805    10.624986    3.2873935    11.213805    0.8947778 
   33100    302.25758    3182.3918    11290.243    498.22015    3.1823918    11.290243   0.89391755 
   33200    299.74118    3364.7346    11405.085   -926.77385    3.3647346    11.405085   0.89165369 
   33300    302.53787    3298.5356    11413.905   -489.13917    3.2985356    11.413905   0.88896895 
   33400    303.91332    3188.6344      11340.9    382.72835    3.1886344      11.3409   0.88656332 
   33500    301.45597    3225.5313     11311.88   -1289.8972    3.2255313     11.31188   0.88506666 
   33600    295.85388    3391.7039     11327.78    201.64171    3.3917039     11.32778   0.88466026 
   33700    303.69373    3171.8281    11318.203    1295.0358    3.1718281    11.318203   0.88562232 
   33800    295.66307    3397.8838    11328.841   -595.07062    3.3978838    11.328841   0.88716496 
   33900    301.94356    3132.5004    11231.928    666.32567    3.1325004    11.231928   0.88878173 
   34000    297.38167    3232.0278    11209.086   -1123.9619    3.2320278    11.209086   0.89026544 
   34100    302.42393    3108.6175    11220.931   -1191.6921    3.1086175    11.220931   0.89150292 
   34200    300.99195    3309.6201    11383.521    1670.9493    3.3096201    11.383521    0.8918692 
   34300    300.57475    3401.8422    11464.552    172.22463    3.4018422    11.464552   0.89052957 
   34400    303.96387    3215.7136    11369.334    69.558095    3.2157136    11.369334   0.88953884 
   34500    300.47138    3221.8661    11281.803   -16.800614    3.2218661    11.281803   0.88833694 
   34600    299.35117    3218.5708    11248.459   -949.99773    3.2185708    11.248459   0.88787419 
   34700     299.3241         3206    11235.162   -437.99432        3.206    11.235162   0.88881809 
   34800    300.48858    3259.4563    11319.855   -92.954947    3.2594563    11.319855   0.88943665 
   34900    299.55973    3428.0795    11463.563   -219.30765    3.4280795    11.463563   0.88932977 
   35000    307.57548    3276.1752    11526.675    131.06538    3.2761752    11.526675   0.88918975 
   35100    297.42071    3346.1588    11324.264    444.90777    3.3461588    11.324264   0.88886512 
   35200    297.84465    3226.3372    11215.814    426.19376    3.2263372    11.215814   0.88929013 
   35300    303.00633    3062.0756    11190.011   -404.16561    3.0620756    11.190011   0.89095643 
   35400    297.66843     3301.105    11285.855   -1152.7979     3.301105    11.285855   0.89220129 
   35500    302.94036    3245.0146    11371.181   -237.71043    3.2450146    11.371181   0.89290172 
   35600    297.21517    3421.3051    11393.897     5.038197    3.4213051    11.393897   0.89320793 
   35700    302.26926    3093.8998    11202.064      572.885    3.0938998    11.202064   0.89333487 
   35800    299.99875    3088.6633    11135.923    1166.1055    3.0886633    11.135923   0.89344318 
   35900    299.15976    3147.5413    11172.295    80.188039    3.1475413    11.172295   0.89291487 
   36000     299.1483    3302.1767    11326.623   -288.54071    3.3021767    11.326623   0.89245712 
   36100    298.34491    3436.5482    11439.444    453.74566    3.4365482    11.439444   0.89202587 
   36200    304.43562    3211.0897    11377.365    323.34614    3.2110897    11.377365   0.89155881 
   36300    301.20663      3244.51     11324.17   -955.07525      3.24451     11.32417   0.89102544 
   36400    301.86144    3138.0043    11235.229   -1048.0541    3.1380043    11.235229   0.89055146 
   36500     300.4107    3170.7882    11229.098    627.38456    3.1707882    11.229098    0.8905723 
   36600     295.0477    3295.8798    11210.331    55.723394    3.2958798    11.210331   0.89087122 
   36700     299.5334    3172.5142    11207.291    622.16338    3.1725142    11.207291   0.89159431 
   36800    302.80644    3167.2561     11289.83   -26.639402    3.1672561     11.28983   0.89208017 
   36900    299.00935    3358.5259    11379.245   -434.76776    3.3585259    11.379245   0.89320229 
   37000     305.2199    3192.8467     11380.16   -445.54975    3.1928467     11.38016   0.89485922 
   37100    299.51016    3164.3004    11198.454   -917.07961    3.1643004    11.198454   0.89654674 
   37200     296.0417    3167.3683    11108.483     165.6913    3.1673683    11.108483   0.89787152 
   37300    299.95531     3064.432    11110.526    854.51894     3.064432    11.110526   0.89908954 
   37400    296.75807    3308.3411    11268.671    624.25419    3.3083411    11.268671   0.89835783 
   37500     305.2038    3121.1797    11308.061    1174.9065    3.1211797    11.308061   0.89533624 
   37600    304.89513     3076.535    11255.136    147.07073     3.076535    11.255136   0.89071444 
   37700    290.54525    3271.3749    11065.051    674.54216    3.2713749    11.065051   0.88760673 
   37800    293.08746    3176.0187    11037.888   -908.69232    3.1760187    11.037888   0.88601125 
   37900    302.75064    3048.1535     11169.23   -911.59893    3.0481535     11.16923   0.88636867 
   38000    297.02836    3327.0857    11294.666   -547.33373    3.3270857    11.294666    0.8878715 
   38100    305.82678    3067.5034    11271.096   -946.88083    3.0675034    11.271096   0.89062001 
   38200    299.42653    3175.9213    11207.831    515.70495    3.1759213    11.207831   0.89306927 
   38300    295.02914    3144.7912    11058.744    1048.1096    3.1447912    11.058744   0.89336734 
   38400    298.26524    3011.5466    11012.306    1229.2492    3.0115466    11.012306   0.89333122 
   38500    296.65001    3177.2028    11134.635    918.53125    3.1772028    11.134635   0.89335961 
   38600    298.23883    3207.3673    11207.418    639.22648    3.2073673    11.207418    0.8942687 
   38700    300.43704    3206.8507    11265.867    718.60926    3.2068507    11.265867   0.89461756 
   38800    299.92653    3259.4715    11304.794   -772.28436    3.2594715    11.304794   0.89376987 
   38900    301.61224    3155.4188    11245.959   -1225.5745    3.1554188    11.245959    0.8924641 
   39000    296.27432    3154.8346    11102.189    -336.7639    3.1548346    11.102189   0.89252939 
   39100    299.71841    3042.7585    11082.498    357.85323    3.0427585    11.082498   0.89302153 
   39200    300.82941    3139.8698    11209.411   -22.776186    3.1398698    11.209411   0.89347588 
   39300    298.58107    3276.0022    11285.233   -287.68063    3.2760022    11.285233   0.89447823 
   39400    304.75747    3046.6125    11221.521     218.7961    3.0466125    11.221521    0.8951149 
   39500    298.38678    3175.3387    11179.358   -161.55416    3.1753387    11.179358   0.89598907 
   39600    301.16652    3072.8808    11151.465    393.48763    3.0728808    11.151465   0.89716487 
   39700     299.0396    3075.9283    11097.459    429.65663    3.0759283    11.097459   0.89826687 
   39800    299.66526    2979.5881    11017.902    216.61287    2.9795881    11.017902   0.89857517 
   39900    293.82699    3201.2939        11083    869.71263    3.2012939       11.083    0.8987747 
   40000    301.99485    3139.4973    11240.301    -259.2841    3.1394973    11.240301   0.89821147 
   40100    304.59315    3093.1215    11263.623    127.43197    3.0931215    11.263623   0.89718132 
   40200    303.56413    3053.6757    11196.574   -692.94973    3.0536757    11.196574   0.89514925 
   40300    289.55648     3373.249    11140.402   -919.06349     3.373249    11.140402   0.89343953 
   40400    298.72662    2972.4226    10985.558   -337.79158    2.9724226    10.985558    0.8919391 
   40500    292.37109    3119.3421    10961.995   -710.97893    3.1193421    10.961995   0.89144026 
   40600     302.7816    3009.4988    11131.406   -815.45396    3.0094988    11.131406   0.89270455 
   40700    302.65722    3117.8518    11236.423    465.62439    3.1178518    11.236423   0.89529424 
   40800    299.88771    3221.0155    11265.296     467.3869    3.2210155    11.265296   0.89821708 
   40900    298.07045    3201.2542    11196.788    613.78338    3.2012542    11.196788   0.90061423 
   41000    300.48305    2976.3708    11036.621    2014.8779    2.9763708    11.036621   0.90166442 
   41100    296.86127    3093.7599    11056.858    1028.0045    3.0937599    11.056858   0.90178158 
   41200    299.55002     3132.805    11168.027    587.95321     3.132805    11.168027   0.90157948 
   41300    301.83002    3088.5718    11184.954   -493.37276    3.0885718    11.184954   0.90077631 
   41400    302.15782    3099.2343    11204.409   -177.13415    3.0992343    11.204409   0.89935387 
   41500    295.60685    3313.2385    11242.688   -1153.8468    3.3132385    11.242688   0.89677445 
   41600     298.9747     3084.865    11104.655   -1041.7389     3.084865    11.104655   0.89421391 
   41700    297.15888    3029.0465    11000.128   -75.082056    3.0290465    11.000128   0.89250202 
   41800    299.31597    3073.6204    11102.565   -194.41735    3.0736204    11.102565   0.89194862 
   41900    297.02032    3307.5621    11274.927    709.72169    3.3075621    11.274927   0.89323438 
   42000    301.47908     3183.401    11270.369    1069.1753     3.183401    11.270369   0.89574195 
   42100    299.94426    3166.6554    11212.453   -16.787331    3.1666554    11.212453   0.89872907 
   42200    300.18432    3063.7274    11115.965    1155.4354    3.0637274    11.115965   0.90173297 
   42300    298.63236    2980.1588    10990.766    378.88253    2.9801588    10.990766   0.90342919 
   42400    292.89117    3154.7586    11011.362    480.99632    3.1547586    11.011362   0.90388666 
   42500    300.76735    3148.2446    11216.121    982.19483    3.1482446    11.216121   0.90309249 
   42600    298.88634    3280.4058    11297.826   -1731.2636    3.2804058    11.297826   0.90052039 
   42700    303.89468    3066.1457    11217.911    927.38442    3.0661457    11.217911   0.89804873 
   42800    296.58248    3188.0922    11143.712    87.925776    3.1880922    11.143712   0.89560889 
   42900     301.6305    2987.3847    11078.415   -1529.6286    2.9873847    11.078415    0.8942444 
   43000    296.47203    3201.9073    11154.565    355.34068    3.2019073    11.154565   0.89436582 
   43100    303.60661    3160.8288    11304.866   -489.68945    3.1608288    11.304866   0.89499534 
   43200    301.95918    3239.3316    11339.178   -404.38588    3.2393316    11.339178   0.89540783 
   43300    301.46843    3098.6412    11185.324    781.09079    3.0986412    11.185324   0.89579837 
   43400    300.14593    3058.7856    11109.993   -199.52759    3.0587856    11.109993   0.89619261 
   43500     296.8574    3174.1068    11137.101     427.0398    3.1741068    11.137101   0.89636139 
   43600    298.62586    3210.9148    11221.347    478.98547    3.2109148    11.221347   0.89746992 
   43700    301.17042    3124.8119    11203.501   -1003.3396    3.1248119    11.203501   0.89883304 
   43800    297.72569    3063.3233    11049.609   -44.879796    3.0633233    11.049609   0.90015586 
   43900    295.43993    3042.0497    10967.022   -8.7564333    3.0420497    10.967022   0.89984895 
   44000    296.43449     3121.813    11073.464    481.87329     3.121813    11.073464   0.89841698 
   44100     306.1352    2962.7685    11174.634   -5.8288922    2.9627685    11.174634   0.89673626 
   44200    292.45689    3389.6965    11234.651   -1345.4839    3.3896965    11.234651   0.89522304 
   44300    302.04232    3049.9558    11152.032   -152.07122    3.0499558    11.152032   0.89493686 
   44400    298.44659     3062.448    11068.072     -273.418     3.062448    11.068072   0.89361541 
   44500    293.97293    3102.7243    10988.345    478.45432    3.1027243    10.988345    0.8930851 
   44600    298.28452    3139.0095    11140.286   -468.28438    3.1390095    11.140286   0.89281953 
   44700    304.64837    3078.3341    11250.316    708.97813    3.0783341    11.250316   0.89262692 
   44800    300.97785    3190.5205    11264.044    644.53738    3.1905205    11.264044   0.89267507 
   44900    300.86509    3140.2524    11210.751   -10.559678    3.1402524    11.210751   0.89272506 
   45000    296.47774      3149.52    11102.331    632.31826      3.14952    11.102331   0.89391555 
   45100    299.53672    2947.3336    10982.199   -555.67119    2.9473336    10.982199    0.8957947 
   45200    299.89304    3045.5725    11089.996   -706.74559    3.0455725    11.089996   0.89767945 
   45300    299.60715    3144.5121    11181.267   -243.43276    3.1445121    11.181267   0.89965854 
   45400     303.0329    3049.6669    11178.315    294.19346    3.0496669    11.178315   0.90161774 
   45500    301.09728    3061.5862    11138.313     -184.953    3.0615862    11.138313   0.90293028 
   45600    293.14454    3217.8065    11081.206    750.81179    3.2178065    11.081206   0.90273325 
   45700    298.27752    2999.8871    11000.976    964.31844    2.9998871    11.000976    0.9008022 
   45800    297.37624    3026.2924    11003.205   -205.39598    3.0262924    11.003205   0.89867783 
   45900    301.67811    3090.1654    11182.473   -860.00911    3.0901654    11.182473   0.89726886 
   46000    297.13854    3297.0225    11267.559   -715.30965    3.2970225    11.267559   0.89628472 
   46100    300.69449    3150.3958    11216.318   -1095.2135    3.1503958    11.216318   0.89614503 
   46200    299.81035    3042.4729    11084.679   -376.07985    3.0424729    11.084679   0.89708197 
   46300    300.46681    2898.3903    10958.205    400.51761    2.8983903    10.958205   0.89919171 
   46400    295.47795    3128.3677     11054.36   -631.79182    3.1283677     11.05436   0.90192926 
   46500    298.47729    3113.0656    11119.513    187.53671    3.1130656    11.119513   0.90386914 
   46600    303.77156    3011.4947    11159.957    592.45389    3.0114947    11.159957   0.90505915 
   46700    295.28465    3261.0471    11181.854   -262.88395    3.2610471    11.181854   0.90457164 
   46800    305.26163    2844.1453    11032.578    2001.7482    2.8441453    11.032578   0.90249121 
   46900    292.79668    3121.4794    10975.548   -582.17518    3.1214794    10.975548   0.89874381 
   47000    298.48164    3059.8151    11066.379   -594.13531    3.0598151    11.066379   0.89452207 
   47100    300.13746    3153.3776    11204.358   -319.26729    3.1533776    11.204358   0.89267241 
   47200    303.40224    3077.7613    11216.317   -1429.1006    3.0777613    11.216317    0.8928744 
   47300    301.28294    3095.3785    11177.085   -92.169428    3.0953785    11.177085   0.89436899 
   47400    301.48272    2959.1052    11046.171    386.28815    2.9591052    11.046171   0.89660316 
   47500    290.24448    3152.9697    10938.577    116.34187    3.1529697    10.938577   0.90007856 
   47600    295.68668    2843.3243    10774.915     824.5826    2.8433243    10.774915    0.9029176 
   47700    297.31694    2984.3171    10959.639    1266.1012    2.9843171    10.959639   0.90462621 
   47800    298.51248    3098.6202    11106.012    792.09155    3.0986202    11.106012   0.90543539 
   47900    303.42108    3005.4852    11144.546    781.32996    3.0054852    11.144546   0.90566625 
   48000    298.82086    3150.5023    11166.166   -485.69112    3.1505023    11.166166   0.90416981 
   48100    302.82104    2987.8684    11110.834   -937.25193    2.9878684    11.110834   0.90169621 
   48200    298.29399    3096.2733    11097.804   -305.93082    3.0962733    11.097804   0.89961446 
   48300    295.20253    3168.2907    11086.895   -1107.7623    3.1682907    11.086895    0.8978595 
   48400    299.10119    3117.0148    11140.198   -943.04871    3.1170148    11.140198    0.8972393 
   48500    303.04352    3125.8089    11254.742    411.25075    3.1258089    11.254742   0.89686715 
   48600    302.29098    3228.4143    11337.161    1158.8706    3.2284143    11.337161   0.89687155 
   48700    300.71689    3150.7937    11217.317    873.66892    3.1507937    11.217317   0.89668369 
   48800    298.10529    3117.6658    11114.134    531.54971    3.1176658    11.114134   0.89722151 
   48900    302.06489    3027.6498    11130.332    901.63787    3.0276498    11.130332   0.89787461 
   49000    298.75798    3181.0307    11195.007   -1281.7174    3.1810307    11.195007   0.89896971 
   49100    298.72727    3239.4447    11252.598    -828.0651    3.2394447    11.252598   0.90010428 
   49200    298.81792    3287.3394    11302.924   -289.28273    3.2873394    11.302924   0.90050847 
   49300    304.32271    2983.3122    11146.559   -2232.7698    2.9833122    11.146559   0.89974598 
   49400    300.09347    3012.8167    11062.617    1514.9237    3.0128167    11.062617    0.8997922 
   49500    299.74738    3003.3014    11043.818    1471.0436    3.0033014    11.043818   0.89932916 
   49600    293.59482    3283.7045    11159.183    783.03727    3.2837045    11.159183   0.89873434 
   49700    302.58654    3194.5349     11311.21    1766.2363    3.1945349     11.31121   0.89818022 
   49800    303.98593    3125.7102    11279.923   -1214.5622    3.1257102    11.279923   0.89691515 
   49900    301.19549    3082.0442    11161.405   -1244.4417    3.0820442    11.161405    0.8966298 
   50000    297.46469    3137.3307    11116.616   -819.40415    3.1373307    11.116616   0.89717944 
   50100    303.19609    2999.0368    11132.062   -1567.0025    2.9990368    11.132062   0.89743457 
   50200    295.26598    3251.4412    11171.747   -670.16426    3.2514412    11.171747   0.89774945 
   50300    302.12232     3052.622    11156.845    508.51639     3.052622    11.156845   0.89806579 
   50400    301.97789    3058.3983    11158.747    842.55682    3.0583983    11.158747    0.8990586 
   50500    297.75606    3212.3826    11199.483    753.16355    3.2123826    11.199483   0.90016197 
   50600    298.45438    3165.3447    11171.177     267.0938    3.1653447    11.171177   0.90083334 
   50700    301.69304    2967.2822     11059.99    1393.3428    2.9672822     11.05999   0.90146617 
   50800    295.11641    3084.2015    11000.496   -439.81449    3.0842015    11.000496   0.90143621 
   50900    302.95427    2990.3939    11116.933   -31.521471    2.9903939    11.116933    0.9013662 
   51000    296.67498    3312.5756    11270.677    169.97099    3.3125756    11.270677   0.90194259 
   51100    305.57386    3028.7477    11225.556   -1927.7693    3.0287477    11.225556   0.90140056 
   51200    296.33837    3188.2127    11137.285   -1392.2731    3.1882127    11.137285   0.90001793 
   51300    300.37507    2982.4616    11039.816    -591.4944    2.9824616    11.039816   0.89844617 
   51400    299.59405    3038.0652    11074.469   -158.70296    3.0380652    11.074469   0.89705217 
   51500    298.84198    3105.8516    11122.081    688.18764    3.1058516    11.122081   0.89540124 
   51600    302.25844    3067.9797    11175.854     1356.782    3.0679797    11.175854   0.89435195 
   51700    305.46717    2981.1983    11175.144    1759.3563    2.9811983    11.175144   0.89465479 
   51800    292.30088    3319.1493    11159.918    722.56311    3.3191493    11.159918   0.89545928 
   51900    303.58604    2974.9181    11118.404   -224.03573    2.9749181    11.118404   0.89575882 
   52000     299.0023    3175.0108    11195.541   -36.854352    3.1750108    11.195541   0.89724956 
   52100    307.42541    2983.5882    11230.063   -623.88934    2.9835882    11.230063   0.89934413 
   52200    295.71034    3281.1037    11213.329   -1149.7126    3.2811037    11.213329   0.90091319 
   52300    299.17195    3010.3654    11035.447   -323.59329    3.0103654    11.035447    0.9022594 
   52400     296.4443    3056.5371    11008.451    513.50168    3.0565371    11.008451   0.90294108 
   52500    303.78418    2961.5483    11110.349    369.13815    2.9615483    11.110349   0.90333511 
   52600    299.45854    3169.3591    11202.128   -45.879281    3.1693591    11.202128   0.90271487 
   52700     303.6454    3035.8224    11180.901    896.51295    3.0358224    11.180901   0.90146723 
   52800    296.11216    3213.5255     11156.53    709.14698    3.2135255     11.15653   0.89973988 
   52900    302.75136     3017.545    11138.641   -187.12305     3.017545    11.138641   0.89725839 
   53000    300.88994    3156.3677    11227.533    -758.4309    3.1563677    11.227533   0.89481852 
   53100    300.12395    3299.2541    11349.872    450.27573    3.2992541    11.349872    0.8930311 
   53200    301.78295    3200.6727    11295.792    390.42304    3.2006727    11.295792   0.89329313 
   53300    300.33036    3062.2008    11118.355   -523.30716    3.0622008    11.118355   0.89442455 
   53400    301.54379    3025.0596    11113.763    178.96418    3.0250596    11.113763   0.89628842 
   53500    296.72809    3202.8358    11162.362    345.62029    3.2028358    11.162362   0.89884157 
   53600    305.70473    3058.2071    11258.526   -374.20875    3.0582071    11.258526   0.90015025 
   53700    305.68953    3156.0885    11355.999   -155.91524    3.1560885    11.355999   0.90091176 
   53800    296.31224    3220.2632    11168.634   -189.48765    3.2202632    11.168634   0.90144354 
   53900    298.06551    3115.7626    11111.164   -460.93494    3.1157626    11.111164   0.90077112 
   54000    298.97546    3124.0225    11143.833   -347.53349    3.1240225    11.143833    0.8992243 
   54100    302.40226    3158.5773    11270.309    263.67479    3.1585773    11.270309   0.89750031 
   54200    304.38077    3075.1996    11240.003    827.90811    3.0751996    11.240003   0.89614738 
   54300    295.22116    3133.0807    11052.184     359.1786    3.1330807    11.052184   0.89623326 
   54400    302.33277    2909.5482    11019.416   -163.14584    2.9095482    11.019416   0.89618075 
   54500    299.00012     3096.867    11117.339   -428.00261     3.096867    11.117339   0.89657207 
   54600    300.03049    3169.8509    11217.962    -243.0426    3.1698509    11.217962   0.89725482 
   54700    300.17246    3178.9889    11230.908    -143.7258    3.1789889    11.230908    0.8975143 
   54800    302.60961    3037.7775    11155.071    499.37171    3.0377775    11.155071   0.89764404 
   54900    293.92622    3065.5087    10949.877    1086.2993    3.0655087    10.949877    0.8975923 
   55000    295.74543    3067.6112    11000.778    49.435335    3.0676112    11.000778   0.89691596 
   55100    302.98121    3008.2187    11135.481    137.69304    3.0082187    11.135481    0.8964141 
   55200    300.25273    3176.0844    11230.157    1160.3469    3.1760844    11.230157   0.89659187 
   55300    303.40042     3128.572    11267.079   -1529.6574     3.128572    11.267079   0.89655414 
   55400      299.533     3171.848    11206.614    124.27195     3.171848    11.206614   0.89708433 
   55500    298.21346    3009.9302      11009.3   -829.92755    3.0099302      11.0093   0.89736515 
   55600    297.99779    3028.3692    11021.954   -697.41667    3.0283692    11.021954   0.89862862 
   55700    298.95219    3136.9096    11156.096    217.60861    3.1369096    11.156096   0.89973548 
   55800    303.53043    3042.6906    11184.685    61.045076    3.0426906    11.184685   0.90058226 
   55900     302.0999    3090.3407    11193.962    1246.4861    3.0903407    11.193962   0.90097611 
   56000     299.9707    3124.7433     11171.25    1842.3366    3.1247433     11.17125   0.90025898 
   56100     297.2952    2964.9035    10939.642    882.81066    2.9649035    10.939642   0.89853128 
   56200    296.00137    3033.7566    10973.789    114.13171    3.0337566    10.973789    0.8961144 
   56300    303.84572    2948.1154    11098.567   -738.99438    2.9481154    11.098567   0.89397217 
   56400    297.90616    3208.3537    11199.481   -1848.0588    3.2083537    11.199481   0.89310405 
   56500    299.73045    3183.5463    11223.609   -615.46028    3.1835463    11.223609   0.89261898 
   56600    299.77522    3156.7218    11197.985    283.01761    3.1567218    11.197985   0.89339483 
   56700    293.69902    3174.2637    11052.537   -303.66044    3.1742637    11.052537   0.89540003 
   56800    302.97778    2850.4815    10977.651     638.3272    2.8504815    10.977651   0.89782409 
   56900     301.0713    3015.1085    11091.138    78.950917    3.0151085    11.091138   0.90053624 
   57000    302.96369    3102.7547    11229.547    1197.8968    3.1027547    11.229547   0.90218112 
   57100    297.61218    3249.8902    11233.131    1028.1042    3.2498902    11.233131   0.90218847 
   57200    299.60425    3155.2738    11191.951   -193.68371    3.1552738    11.191951   0.90027764 
   57300    303.26494    2968.5228    11103.395     470.4236    2.9685228    11.103395   0.89748272 
   57400    293.48501    3171.2375     11043.77   -1131.6789    3.1712375     11.04377   0.89544627 
   57500    299.95465    2917.1489    10963.225   -1021.5756    2.9171489    10.963225   0.89567409 
   57600     294.9205    3211.5146    11122.553    626.42038    3.2115146    11.122553   0.89723085 
   57700    298.42316    3228.5149     11233.51   -162.59296    3.2285149     11.23351   0.89855628 
   57800    306.95507    2986.4321     11220.29    357.57857    2.9864321     11.22029   0.90004185 
   57900    299.73418    3132.8285    11172.991   -65.561539    3.1328285    11.172991    0.9003355 
   58000    294.43884    3087.6813      10985.8   -995.33003    3.0876813      10.9858   0.89924027 
   58100    295.70711    3082.9794    11015.118   -504.26531    3.0829794    11.015118   0.89739637 
   58200    300.26056    3040.9626    11095.245    627.09355    3.0409626    11.095245   0.89587659 
   58300    299.53432    3119.9301    11154.731    1548.3007    3.1199301    11.154731   0.89487842 
   58400    299.46289    3151.5433    11184.429     1465.935    3.1515433    11.184429    0.8941404 
   58500    297.01701    3257.7283    11225.004   -331.58229    3.2577283    11.225004   0.89452799 
   58600    304.98779    3055.5213    11236.608   -689.88767    3.0555213    11.236608   0.89633121 
   58700    303.26441    3103.5972    11238.456    68.828659    3.1035972    11.238456   0.89801782 
   58800    301.82885    3025.7647    11122.115    818.48787    3.0257647    11.122115   0.89884266 
   58900    295.39734     3139.488    11063.318    -868.5757     3.139488    11.063318   0.89908378 
   59000    298.90018    3034.0733    11051.864    -233.3561    3.0340733    11.051864   0.89890511 
   59100    301.21108    3162.6097    11242.389    396.18049    3.1626097    11.242389   0.89780094 
   59200     303.3143    3143.4456    11279.642    405.02903    3.1434456    11.279642   0.89626013 
   59300    298.34255    3178.8918    11181.725    492.61192    3.1788918    11.181725   0.89573971 
   59400    300.02991      3073.03    11121.125   -197.28272      3.07303    11.121125   0.89496771 
   59500    297.86616    3166.3202    11156.374   -75.748298    3.1663202    11.156374   0.89468345 
   59600    298.94617    3118.5125    11137.537    984.73959    3.1185125    11.137537   0.89521338 
   59700    297.29088    3227.0145    11201.637   -1207.7827    3.2270145    11.201637   0.89458217 
   59800    303.01176    3127.2614    11255.343    -867.7969    3.1272614    11.255343   0.89380409 
   59900    303.98327    3089.3449    11243.486    790.86387    3.0893449    11.243486   0.89255394 
   60000    295.44078     3226.939    11151.934   -476.50216     3.226939    11.151934   0.89129119 
   60100    295.15677    3146.7575    11064.134     146.3256    3.1467575    11.064134   0.89199183 
   60200    307.58657    2838.7644    11089.562    606.79067    2.8387644    11.089562   0.89419941 
   60300    297.35968     3353.695    11330.163   -487.53822     3.353695    11.330163   0.89729566 
   60400    302.80825    3175.2805    11297.903   -465.85628    3.1752805    11.297903   0.90033831 
   60500    305.33393    3023.2797    11213.652    485.21865    3.0232797    11.213652   0.90258475 
   60600    296.82883    3164.1523    11126.381   -422.66415    3.1641523    11.126381   0.90226699 
   60700    299.96732    3018.5706    11064.987   -148.20522    3.0185706    11.064987    0.9017185 
   60800    301.95783    2929.7381    11029.548     533.7477    2.9297381    11.029548   0.90043636 
   60900    299.16079    3134.4772    11159.259    795.99813    3.1344772    11.159259   0.89846335 
   61000     302.7387    3184.8981    11305.655   -27.780107    3.1848981    11.305655   0.89662557 
   61100    298.84756    3273.1234    11289.503   -255.90928    3.2731234    11.289503   0.89446514 
   61200    302.66896    3012.0688    11130.955   -111.91722    3.0120688    11.130955    0.8936702 
   61300     296.1404    3160.5032    11104.265   -904.63763    3.1605032    11.104265    0.8948829 
   61400    300.96953    3053.5523    11126.852    -469.3475    3.0535523    11.126852   0.89688509 
   61500    302.93489    3006.9106     11132.93   -274.24246    3.0069106     11.13293   0.89857165 
   61600    296.97604    3164.6565    11130.834   -1156.1614    3.1646565    11.130834   0.89996213 
   61700    302.19039     3018.798    11124.847   -426.35249     3.018798    11.124847   0.90132494 
   61800    301.32254    3043.3199    11126.089    401.43344    3.0433199    11.126089   0.90190928 
   61900    298.35419    3092.4826    11095.628    1484.4931    3.0924826    11.095628   0.90143996 
   62000    299.86983    3022.0828    11065.884    779.44573    3.0220828    11.065884   0.89930009 
   62100    296.02246    3144.9695    11085.568   -24.883764    3.1449695    11.085568   0.89723948 
   62200     304.9506    2964.2077    11144.297    52.825127    2.9642077    11.144297   0.89641799 
   62300     297.5925    3297.8042    11280.517    -673.8435    3.2978042    11.280517   0.89646253 
   62400    304.15345    3133.3302    11292.036   -1065.2422    3.1333302    11.292036   0.89645987 
   62500    296.36593    3169.9499    11119.761   -327.05843    3.1699499    11.119761   0.89557981 
   62600     300.5226     2978.503    11039.814   -438.19002     2.978503    11.039814    0.8948196 
   62700    296.88422    3112.5535    11076.268    821.90879    3.1125535    11.076268   0.89592855 
   62800    306.31223    2910.7019    11127.316    262.32807    2.9107019    11.127316   0.89717336 
   62900     299.6126     3253.844    11290.745    207.62541     3.253844    11.290745   0.89968312 
   63000    300.42382    3203.8153    11262.477   -397.12957    3.2038153    11.262477   0.90198805 
   63100    302.08178    2907.1046     11010.24   -240.14795    2.9071046     11.01024   0.90207694 
   63200    296.38688    3079.4586    11029.832    890.70527    3.0794586    11.029832   0.90064384 
   63300    303.69239    2989.9479    11136.287   -938.24585    2.9899479    11.136287   0.89738593 
   63400    299.26761    3158.0806    11185.728   -214.71724    3.1580806    11.185728   0.89376567 
   63500    302.20971    3039.9056    11146.472   -110.98003    3.0399056    11.146472   0.89093345 
   63600    293.91747    3139.9941    11024.127   -261.93799    3.1399941    11.024127   0.88981032 
   63700    296.44171    3014.2677    10966.112    1658.9457    3.0142677    10.966112   0.88996969 
   63800     298.7781    3129.2749    11143.791    630.31685    3.1292749    11.143791   0.89188916 
   63900    302.60897    3090.7029     11207.98   -481.26755    3.0907029     11.20798   0.89529451 
   64000    295.59405    3281.9249    11211.031   -1077.0084    3.2819249    11.211031   0.89870424 
   64100    301.14874    3061.2414    11139.348   -2153.9952    3.0612414    11.139348   0.90094903 
   64200    301.04915    2892.0362    10967.472   -1693.9811    2.8920362    10.967472   0.90268534 
   64300    294.52459    3056.2572    10956.676     1484.021    3.0562572    10.956676   0.90300593 
   64400    299.61711    2996.7648    11033.787    1899.5319    2.9967648    11.033787   0.90164129 
   64500     302.9092    2961.7341    11087.064     1186.155    2.9617341    11.087064    0.8983266 
   64600    298.49338    3115.0415     11121.92    1440.7166    3.1150415     11.12192   0.89473051 
   64700    298.75377    3164.0049    11177.869    490.10779    3.1640049    11.177869    0.8923706 
   64800     301.6895    3166.8366    11259.449   -63.703802    3.1668366    11.259449   0.89108226 
   64900    304.28371    3277.8239    11440.024   -917.79907    3.2778239    11.440024   0.89073867 
   65000    302.16272    3247.7517    11353.058   -1742.0204    3.2477517    11.353058   0.89159386 
   65100    301.80732    3103.8113    11199.584    -1269.314    3.1038113    11.199584   0.89330407 
   65200    300.39946    3024.5891    11082.597   -375.05254    3.0245891    11.082597   0.89555736 
   65300     292.2264    3208.9287      11047.7   -715.94836    3.2089287      11.0477   0.89776554 
   65400    303.16993     2959.407    11091.731    1223.0068     2.959407    11.091731   0.89955341 
   65500     301.6208    3168.8495    11259.619    2023.6027    3.1688495    11.259619   0.89997959 
   65600    306.22233    3092.3751    11306.578    1146.4759    3.0923751    11.306578    0.8992616 
   65700    296.28118    3374.3851    11321.923    211.43659    3.3743851    11.321923   0.89655357 
   65800    301.12574    3039.7192    11117.209    186.40844    3.0397192    11.117209   0.89307598 
   65900    299.06225     3022.032     11044.17   -1637.5835     3.022032     11.04417   0.89050461 
   66000    301.16172     2998.568    11077.023   -888.97102     2.998568    11.077023   0.88972404 
   66100    300.17692    3182.8692    11234.908   -656.41978    3.1828692    11.234908   0.89148277 
   66200    302.73807    3142.1092    11262.849   -419.13424    3.1421092    11.262849   0.89421392 
   66300    299.74777    3168.1816    11208.709    274.95599    3.1681816    11.208709   0.89674731 
   66400    301.30422    3028.7114    11110.989   -53.170135    3.0287114    11.110989   0.89897636 
   66500    300.34317    3009.7308    11066.229   -382.70707    3.0097308    11.066229   0.90034352 
   66600    298.54823    3066.7541    11075.104   -295.53862    3.0667541    11.075104   0.89984229 
   66700     298.5409    3150.1431    11158.297    306.11346    3.1501431    11.158297   0.89882772 
   66800    303.62572    3157.3828    11301.933    199.80846    3.1573828    11.301933   0.89723934 
   66900     305.4462    3119.2067     11312.59    1062.0055    3.1192067     11.31259   0.89515421 
   67000    297.50036    3149.3931    11129.635    1189.8616    3.1493931    11.129635   0.89360742 
   67100    296.60849    3120.4834    11076.801    -1046.161    3.1204834    11.076801   0.89270237 
   67200    299.27496    3049.2169    11077.061   -1524.8103    3.0492169    11.077061   0.89229658 
   67300    305.87605     2975.008    11179.922   -851.16157     2.975008    11.179922    0.8930946 
   67400    299.13253    3249.8531    11273.877   -1287.1354    3.2498531    11.273877   0.89558807 
   67500    306.70597    2963.7357    11190.911   -690.25134    2.9637357    11.190911   0.89877085 
   67600    295.79257    3068.3144    11002.746    1428.7361    3.0683144    11.002746   0.90122968 
   67700    296.55955    3033.8357    10988.841    2292.2746    3.0338357    10.988841   0.90246312 
   67800    301.08708     3016.446    11092.899    1575.1056     3.016446    11.092899   0.90213319 
   67900    299.86805    3114.4849    11158.238    1004.3337    3.1144849    11.158238   0.90112184 
   68000    301.71426    3004.0385    11097.315   -146.42875    3.0040385    11.097315   0.89994405 
   68100    295.89878    2984.5488    10921.829   -65.317486    2.9845488    10.921829   0.89835134 
   68200    296.94982    2927.1141    10892.588   -1147.7024    2.9271141    10.892588   0.89604669 
   68300    295.61281    3102.3052    11031.915   -2394.0334    3.1023052    11.031915   0.89423133 
   68400    295.37165    3194.3715    11117.512   -1007.5394    3.1943715    11.117512   0.89311492 
   68500    305.22404    2941.1746    11128.599    517.89728    2.9411746    11.128599   0.89241119 
   68600    298.29323      3155.04     11156.55    365.21488      3.15504     11.15655   0.89291073 
   68700    300.33844    3153.1127    11209.484    1232.4121    3.1531127    11.209484   0.89422675 
   68800    303.79807    3135.8475    11285.021    1108.4258    3.1358475    11.285021   0.89635046 
   68900    304.13237    3045.5518    11203.693    287.83824    3.0455518    11.203693    0.8986923 
   69000    301.44682    2975.4467     11061.55    754.54443    2.9754467     11.06155   0.90141875 
   69100    298.27978     3008.174    11009.323   -236.41052     3.008174    11.009323    0.9019174 
   69200    296.08821    3135.1648    11077.527   -893.74596    3.1351648    11.077527   0.90107586 
   69300    302.90115    3004.6741    11129.788   -692.32369    3.0046741    11.129788   0.89938439 
   69400    304.17812    2973.0404    11132.409    297.98925    2.9730404    11.132409   0.89757756 
   69500    295.71165    3226.8414    11159.102    -423.3828    3.2268414    11.159102   0.89523188 
   69600    297.98848    3153.6486    11146.984    649.98329    3.1536486    11.146984   0.89334888 
   69700    306.03617    2901.8848    11111.094    1312.9246    2.9018848    11.111094    0.8921535 
   69800    296.40546    3164.8399    11115.712    -125.8786    3.1648399    11.115712   0.89161955 
   69900    300.06862    3053.7983    11102.932    869.74216    3.0537983    11.102932   0.89124186 
   70000    298.71178     3162.861    11175.598   -704.33693     3.162861    11.175598   0.89196064 
   70100    301.00887    3116.1976    11190.553   -555.51287    3.1161976    11.190553    0.8942245 
   70200    300.81658    3080.7524    11149.949   -948.40125    3.0807524    11.149949   0.89539084 
   70300    298.40622    3017.1633    11021.704    -1281.833    3.0171633    11.021704   0.89532543 
   70400     298.4132    2965.7645    10970.493   -458.66359    2.9657645    10.970493   0.89472371 
   70500    296.74517     3141.297    11101.281    218.65007     3.141297    11.101281   0.89381718 
   70600     305.3002    3037.8142    11227.281    1733.3221    3.0378142    11.227281   0.89354092 
   70700     298.4825    3195.4949    11202.082    1742.3021    3.1954949    11.202082   0.89381313 
   70800    300.86258    3017.3154    11087.746    1130.5644    3.0173154    11.087746   0.89402276 
   70900    298.43838    3092.7253    11098.129    468.45843    3.0927253    11.098129   0.89322776 
   71000    297.83939    3001.1436     10990.48   -1250.1231    3.0011436     10.99048   0.89207791 
   71100    294.54555    3040.8223    10941.803   -1359.2326    3.0408223    10.941803   0.89119207 
   71200    299.91718    2987.3681    11032.439   -1008.9849    2.9873681    11.032439   0.89091861 
   71300    302.51907    3055.4864    11170.352   -1236.4656    3.0554864    11.170352   0.89110989 
   71400    299.01309    3168.1615    11188.981    855.65852    3.1681615    11.188981   0.89306224 
   71500    298.30487    3191.8597    11193.682    2168.7981    3.1918597    11.193682   0.89528375 
   71600    302.51041    3018.2582    11132.891     1155.588    3.0182582    11.132891   0.89709217 
   71700    298.17434    2967.5128    10965.834   -250.72917    2.9675128    10.965834   0.89826277 
   71800    300.38644    2867.4472    10925.106   -804.63039    2.8674472    10.925106   0.89887282 
   71900    293.24864    3212.5247    11078.717   -1294.6338    3.2125247    11.078717   0.89883344 
   72000    306.16284    2930.6579    11143.265    300.38665    2.9306579    11.143265   0.89758377 
   72100    295.37969    3252.0205    11175.377    466.82111    3.2520205    11.175377   0.89427868 
   72200    302.50057    3026.2947    11140.664   -70.789788    3.0262947    11.140664   0.89061024 
   72300    300.68893    3093.8298    11159.603   -179.22872    3.0938298    11.159603    0.8883966 
   72400    300.14751    3026.0198     11077.27    20.321734    3.0260198     11.07727   0.88797722 
   72500    299.54508    2982.3019    11017.392    162.65069    2.9823019    11.017392   0.88944712 
   72600    300.53552    3021.7351    11083.393   -859.53601    3.0217351    11.083393   0.89142873 
   72700    300.59246    3156.2578    11219.443   -698.85892    3.1562578    11.219443   0.89446245 
   72800    305.58825     3047.875    11245.069   -574.38584     3.047875    11.245069   0.89731495 
   72900    298.13243    3098.5132     11095.71    167.62261    3.0985132     11.09571   0.89889103 
   73000    300.59655    2896.0361    10959.331    924.88739    2.8960361    10.959331   0.89956539 
   73100    296.03396    3090.3117    11031.218   -123.58433    3.0903117    11.031218   0.89928328 
   73200    297.17959    3197.1697    11168.807    277.26903    3.1971697    11.168807   0.89812413 
   73300    300.60488    3154.9927    11218.511    421.06237    3.1549927    11.218511   0.89704606 
   73400     304.6899    3013.6604    11186.757    885.15166    3.0136604    11.186757   0.89641519 
   73500    298.98519    3046.2681    11066.339    513.79891    3.0462681    11.066339   0.89498329 
   73600    295.43144    2982.3429    10907.087   -371.03154    2.9823429    10.907087   0.89274682 
   73700    297.77115    2970.6575    10958.163    -394.2735    2.9706575    10.958163   0.89101546 
   73800    298.72687    3078.5419    11091.684   -152.51067    3.0785419    11.091684   0.89141015 
   73900    299.93584     3114.021    11159.593    -742.1409     3.114021    11.159593   0.89320196 
   74000    300.78188    3111.7408    11180.007    98.646318    3.1117408    11.180007   0.89575386 
   74100    298.44663    3166.4228    11172.048     58.53053    3.1664228    11.172048   0.89773595 
   74200    300.63985    2965.7406    11030.197   -826.80926    2.9657406    11.030197   0.89932055 
   74300    297.56531    2962.1533    10944.137   -251.14931    2.9621533    10.944137   0.90062373 
   74400    301.01966    2880.4636    10955.108    732.95459    2.8804636    10.955108   0.90079008 
   74500     298.9429    3093.0389    11111.976    253.67121    3.0930389    11.111976    0.8988874 
   74600    302.00756    3078.1673    11179.312    896.32127    3.0781673    11.179312   0.89629995 
   74700     301.3712     3117.538    11201.612    1025.4986     3.117538    11.201612   0.89428192 
   74800     299.3281     3157.514    11186.784     -581.224     3.157514    11.186784    0.8926465 
   74900    301.81659    3067.7511    11163.773   -462.45664    3.0677511    11.163773   0.89247468 
   75000    296.74251    3216.7583    11176.671   -326.27358    3.2167583    11.176671   0.89382415 
   75100    302.41776    2992.1336    11104.281   -1183.9612    2.9921336    11.104281   0.89548678 
   75200     299.8609    2971.5623    11015.124    19.228821    2.9715623    11.015124   0.89798552 
   75300    291.77548    3095.1669    10921.843    116.46056    3.0951669    10.921843   0.90018518 
   75400     300.6033    2953.4539     11016.93     611.3449    2.9534539     11.01693   0.90100543 
   75500    301.87676    3006.6501    11104.286    1326.5128    3.0066501    11.104286   0.90038549 
   75600    299.40989    3078.9266     11110.39    396.23808    3.0789266     11.11039   0.89857787 
   75700    299.25739     3058.363    11085.736    192.65253     3.058363    11.085736   0.89571505 
   75800    297.67815    3024.3961    11009.407   -77.429607    3.0243961    11.009407   0.89398426 
   75900    296.18233    3012.9497    10957.836   -2416.2872    3.0129497    10.957836   0.89240431 
   76000    296.88848    3105.0891    11068.918   -139.51012    3.1050891    11.068918    0.8924941 
   76100     307.1716    2944.9836     11184.65   -637.57481    2.9449836     11.18465   0.89349273 
   76200    300.89577    3160.9646    11232.286   -13.358539    3.1609646    11.232286   0.89459705 
   76300    299.13519    3107.4069    11131.502     1672.863    3.1074069    11.131502   0.89582763 
   76400    299.42642    2951.7872    10983.694    660.69467    2.9517872    10.983694   0.89761459 
   76500    300.54239    2942.0504    11003.893    1028.3462    2.9420504    11.003893   0.89949311 
   76600      303.032    2922.3476    11050.972    1450.1539    2.9223476    11.050972   0.90108204 
   76700    299.80856    3107.7597    11149.917    133.20984    3.1077597    11.149917   0.90125159 
   76800    301.74099    3222.8005    11316.794   -414.99719    3.2228005    11.316794   0.90031149 
   76900    302.84682    3166.3518    11290.009   -399.08238    3.1663518    11.290009    0.8985006 
   77000    301.36361    3020.1668    11104.038   -696.97617    3.0201668    11.104038   0.89715695 
   77100    298.77845    3058.4336    11072.959   -984.21253    3.0584336    11.072959   0.89597601 
   77200    300.86928    3035.5413    11106.152    304.31106    3.0355413    11.106152   0.89565191 
   77300    301.12686    3042.8561    11120.376    968.62207    3.0428561    11.120376    0.8959379 
   77400    304.11687    3026.5977    11184.323   -150.56707    3.0265977    11.184323   0.89596496 
   77500    299.11599    3204.3663    11227.946    753.22524    3.2043663    11.227946   0.89658629 
   77600    303.93285    2937.9257    11090.715    727.84619    2.9379257    11.090715   0.89644298 
   77700    295.12123    3075.4971     10991.92    184.44553    3.0754971     10.99192   0.89547153 
   77800    301.64248    2933.3081    11024.659   -30.179458    2.9333081    11.024659   0.89530582 
   77900    297.35071    3164.4293    11140.657   -1703.4384    3.1644293    11.140657   0.89486232 
   78000    302.74587     3117.624    11238.573   -568.74568     3.117624    11.238573   0.89458711 
   78100    308.96589    3133.0439    11420.841   -556.04778    3.1330439    11.420841   0.89358927 
   78200    300.06389    3326.2564    11375.263   -212.95346    3.3262564    11.375263    0.8929469 
   78300    304.34965    3067.8753    11231.844    1002.9643    3.0678753    11.231844   0.89244655 
   78400    296.58657    3213.1897     11168.92     950.4245    3.2131897     11.16892   0.89187948 
   78500    297.95485    3057.8286    11050.262    437.63928    3.0578286    11.050262   0.89150941 
   78600    299.12434    3024.5081    11048.312   -286.88001    3.0245081    11.048312   0.89224377 
   78700     305.7753    2918.6987     11120.91   -169.47353    2.9186987     11.12091   0.89350918 
   78800    301.86915    3211.4445    11308.876   -285.59854    3.2114445    11.308876   0.89561284 
   78900    302.02341    3180.9981    11282.568   -508.06202    3.1809981    11.282568   0.89688792 
   79000    300.65846    3088.3049     11153.26    306.64324    3.0883049     11.15326   0.89708557 
   79100    296.07989    3154.7328    11096.872    -753.2147    3.1547328    11.096872   0.89678029 
   79200    307.19444     2835.273    11075.552     184.8676     2.835273    11.075552   0.89574476 
   79300     297.0219    3165.6937    11133.101   -158.26039    3.1656937    11.133101   0.89343849 
   79400    304.89777    2967.4975     11146.17   -200.24125    2.9674975     11.14617   0.89086763 
   79500     298.0904    3226.0041    11222.073   -2.3109559    3.2260041    11.222073   0.88876451 
   79600    303.64429    3066.2025    11211.251    -954.5422    3.0662025    11.211251   0.88767023 
   79700     300.7692    3097.8203    11165.746   -466.07698    3.0978203    11.165746   0.88893422 
   79800    294.85747    3148.6226    11057.971   -40.255237    3.1486226    11.057971   0.89203035 
   79900    300.47058    2919.9242     10979.84   -43.843356    2.9199242     10.97984   0.89690605 
   80000    297.56846    3168.2744    11150.343    427.64497    3.1682744    11.150343   0.90188948 
   80100    304.00612    3112.4114    11267.166   -141.24154    3.1124114    11.267166   0.90450594 
   80200    303.97858    3049.6293    11203.645    647.51942    3.0496293    11.203645   0.90393292 
   80300    299.98373     3043.606    11090.462      246.767     3.043606    11.090462    0.9006681 
   80400    299.71433    3010.5805    11050.211    225.87851    3.0105805    11.050211   0.89661955 
   80500    296.88725    3084.7409    11048.536    459.65022    3.0847409    11.048536   0.89388412 
   80600    303.46211    2979.7634    11119.925    859.26084    2.9797634    11.119925   0.89170972 
   80700    300.69916    3257.0874    11323.135   -877.87322    3.2570874    11.323135   0.89039195 
   80800    306.64917    2989.8148    11215.467   -640.01893    2.9898148    11.215467   0.88975682 
   80900    297.51305    3131.4368    11112.019    194.56532    3.1314368    11.112019   0.88988914 
   81000    302.10954    2952.5518    11056.432   -389.53152    2.9525518    11.056432   0.89129617 
   81100     296.1293    3141.1574    11084.621   -647.53173    3.1411574    11.084621   0.89286588 
   81200     306.2579    2929.3083    11144.465    194.18618    2.9293083    11.144465   0.89436085 
   81300    304.95665    3156.3126    11336.564   -453.10958    3.1563126    11.336564   0.89475088 
   81400    301.42273    3260.6271    11346.084    534.21831    3.2606271    11.346084   0.89535655 
   81500    299.97293    3147.2722    11193.839    970.84071    3.1472722    11.193839   0.89556795 
   81600    297.93467    3157.4266    11149.318    184.79698    3.1574266    11.149318   0.89520104 
   81700    300.14997    3067.0134    11118.329    499.37425    3.0670134    11.118329   0.89572024 
   81800    303.30271    2940.0261    11075.912   -16.273328    2.9400261    11.075912   0.89610362 
   81900    293.80202    3025.5629    10906.599   -1206.1709    3.0255629    10.906599   0.89607415 
   82000    296.42415    2922.4538    10873.827   -589.96709    2.9224538    10.873827   0.89546294 
   82100    299.47764    3066.0497    11099.331   -779.34354    3.0660497    11.099331   0.89522086 
   82200    298.12389    3182.7585    11179.726   -637.35736    3.1827585    11.179726   0.89486656 
   82300    302.50677    3035.6451     11150.18    946.58038    3.0356451     11.15018   0.89435567 
   82400    301.11516    3010.7373    11087.943    1032.3642    3.0107373    11.087943   0.89375345 
   82500    297.88379    3003.7013    10994.228    153.34063    3.0037013    10.994228   0.89246004 
   82600    301.26394    2943.4873    11024.685    859.86068    2.9434873    11.024685   0.89217133 
   82700    294.60554    3328.1095      11230.7   -1366.2776    3.3281095      11.2307   0.89122961 
   82800    305.72831    3026.7595     11227.71   -340.33613    3.0267595     11.22771   0.89090869 
   82900    301.99201    3066.4284    11167.156   -449.45092    3.0664284    11.167156   0.89086169 
   83000    300.08863    3053.4045    11103.075   -625.07788    3.0534045    11.103075   0.89121952 
   83100    302.40396    2951.5296    11063.307    571.94519    2.9515296    11.063307   0.89219485 
   83200    297.10661    3135.2433    11104.923    936.51477    3.1352433    11.104923   0.89239744 
   83300    298.24024    3116.0775    11116.166    1524.5272    3.1160775    11.116166   0.89158222 
   83400    301.50319    3046.5955    11134.211    700.14646    3.0465955    11.134211   0.89036005 
   83500    298.95392    3112.4335    11131.666   -663.78273    3.1124335    11.131666   0.88970018 
   83600    302.73982    2985.5441    11106.331   -692.69093    2.9855441    11.106331   0.88925797 
   83700    295.01066    3268.0713    11181.529   -865.89612    3.2680713    11.181529   0.89050283 
   83800    305.56947    3051.1299     11247.82   -284.16032    3.0511299     11.24782   0.89210804 
   83900    305.51307    3073.8813    11269.058   -311.59044    3.0738813    11.269058   0.89349609 
   84000    299.88133    3083.9277    11128.037   -133.90975    3.0839277    11.128037   0.89472057 
   84100    297.41852    3057.4871    11035.534    817.73863    3.0574871    11.035534   0.89530626 
   84200    300.66584      2980.08    11045.234    844.63791      2.98008    11.045234   0.89504605 
   84300    299.12137    3097.6062     11121.33    1212.3287    3.0976062     11.12133   0.89475609 
   84400    301.64302    3195.3967    11286.762   -314.16709    3.1953967    11.286762   0.89472645 
   84500    302.07601    3236.1052    11339.086   -1177.1763    3.2361052    11.339086   0.89404517 
   84600    303.25774    3129.3695    11264.049    -310.4697    3.1293695    11.264049   0.89356707 
   84700    303.32637    2991.5873    11128.108   -624.31479    2.9915873    11.128108   0.89309154 
   84800    302.27865    2949.6333    11058.049    901.89625    2.9496333    11.058049   0.89334002 
   84900    296.74306    3061.9978    11021.925    1587.5305    3.0619978    11.021925   0.89408985 
   85000    297.01379    3058.0403     11025.23    831.66102    3.0580403     11.02523   0.89547686 
   85100    302.74752    3063.1798    11184.173    352.73317    3.0631798    11.184173    0.8965392 
   85200    304.23786    3098.3208    11259.291   -533.19764    3.0983208    11.259291   0.89624943 
   85300     300.8006    3098.8799    11167.648   -1452.8817    3.0988799    11.167648   0.89543213 
   85400    293.78057    3206.2677    11086.729     -1961.15    3.2062677    11.086729   0.89485192 
   85500    304.60313    2872.4255    11043.194    -180.9041    2.8724255    11.043194   0.89440576 
   85600    294.84926    3184.3927     11093.52    181.84343    3.1843927     11.09352   0.89456893 
   85700    302.42969    2995.0621     11107.53    583.97518    2.9950621     11.10753   0.89408361 
   85800    299.49209    3139.1474    11172.816    1225.6562    3.1391474    11.172816   0.89256461 
   85900    303.10844    3084.2025    11214.877    1505.4995    3.0842025    11.214877   0.89131684 
   86000    299.40384    3205.7176    11237.019    529.44585    3.2057176    11.237019   0.88982979 
   86100    304.89431    2930.9408     11109.52   -984.82792    2.9309408     11.10952   0.88897733 
   86200    295.46025    3083.1534    11008.671   -2404.2838    3.0831534    11.008671   0.89018711 
   86300    295.90599    3061.0879    10998.562   -1347.2824    3.0610879    10.998562   0.89253533 
   86400    299.92574    3063.2544    11108.555    -675.3636    3.0632544    11.108555   0.89414223 
   86500     308.1744    3000.9928    11267.558    1175.6879    3.0009928    11.267558   0.89488766 
   86600    302.90031    3161.5032    11286.595    1394.0741    3.1615032    11.286595   0.89541614 
   86700    304.34676    3043.4233    11207.315    859.79663    3.0434233    11.207315   0.89600136 
   86800    302.02887    3052.1448    11153.861    907.01135    3.0521448    11.153861   0.89576148 
   86900     294.0591    3193.4564    11081.389    -170.9959    3.1934564    11.081389   0.89541239 
   87000    300.64304    3019.3671    11083.909   -596.79944    3.0193671    11.083909   0.89492013 
   87100     299.2325    3181.2275    11207.933   -1748.2805    3.1812275    11.207933   0.89381945 
   87200    301.27001    3181.9597     11263.32    -1391.952    3.1819597     11.26332   0.89184867 
   87300    299.18804    3133.3758    11158.888    -550.7529    3.1333758    11.158888    0.8900141 
   87400    302.58547    2877.8851    10994.531   -930.26824    2.8778851    10.994531   0.88947059 
   87500    294.77236    3157.6168    11064.682    514.06529    3.1576168    11.064682   0.88982762 
   87600    304.04614     3012.797    11168.625    804.11338     3.012797    11.168625   0.89034815 
   87700    297.94956    3243.4987     11235.79    1019.2472    3.2434987     11.23579   0.89104623 
   87800    308.59702    2894.3842    11172.286    1749.5255    2.8943842    11.172286   0.89159102 
   87900    292.51112    3303.2423    11149.651   -840.27397    3.3032423    11.149651   0.89229383 
   88000    304.18992    2941.2175    11100.902   -500.75581    2.9412175    11.100902   0.89219661 
   88100    297.36678    3147.5957    11124.254   -1047.8195    3.1475957    11.124254   0.89196804 
   88200    297.73083    3079.6245    11066.048   -1846.8532    3.0796245    11.066048   0.89189499 
   88300    300.22985    2887.4787    10940.937   -580.78524    2.8874787    10.940937   0.89191764 
   88400    296.06446    3031.3822    10973.107    208.50673    3.0313822    10.973107   0.89209379 
   88500    305.58558    2931.2883    11128.411     1210.002    2.9312883    11.128411   0.89147095 
   88600    297.41318    3244.2775    11222.181      1265.99    3.2442775    11.222181   0.89058879 
   88700    304.51459    3033.8033    11202.197     1264.983    3.0338033    11.202197   0.89008594 
   88800    299.33182    3075.2244    11104.594    665.70021    3.0752244    11.104594   0.89022773 
   88900      292.557    3147.9074    10995.547   -1223.6437    3.1479074    10.995547   0.89066693 
   89000    299.17428    2997.8477    11022.991    -798.9317    2.9978477    11.022991    0.8909983 
   89100    302.89141    3138.4357    11263.289   -1375.0059    3.1384357    11.263289   0.89181989 
   89200    303.08525    3127.6118    11257.664   -727.04608    3.1276118    11.257664   0.89184251 
   89300    298.70782     3126.178    11138.809    883.02997     3.126178    11.138809   0.89094099 
   89400    297.57152     3057.981    11040.132    627.65009     3.057981    11.040132   0.88932239 
   89500    299.60395    3014.9131    11051.582    506.64161    3.0149131    11.051582   0.88794508 
   89600    302.81831    3026.1841    11149.076     842.7266    3.0261841    11.149076   0.88692071 
   89700    301.57797    3234.0703    11323.691   -506.10412    3.2340703    11.323691   0.88698967 
   89800    304.86793    3080.7477    11258.619   -31.470924    3.0807477    11.258619   0.88715985 
   89900    299.90274    3108.8589    11153.543    126.53246    3.1088589    11.153543   0.88670164 
   90000    299.06179    3105.1542     11127.28   -268.86328    3.1051542     11.12728   0.88669356 
   90100    299.71656    3111.4589    11151.149   -202.89092    3.1114589    11.151149   0.88729303 
   90200    303.01917    2970.2096     11098.49    67.947591    2.9702096     11.09849   0.88879614 
   90300    294.93627    3049.6821    10961.144   -585.90398    3.0496821    10.961144   0.88958815 
   90400    298.85243    2936.1474    10952.657   -31.603966    2.9361474    10.952657   0.89022129 
   90500    295.53736    3198.4671    11126.053    605.18671    3.1984671    11.126053   0.89073966 
   90600    301.53205    3128.9368    11217.326    25.933229    3.1289368    11.217326    0.8908457 
   90700    303.60005    3037.5286     11181.39    764.90347    3.0375286     11.18139   0.89056568 
   90800     293.6557    3243.0343    11120.146   -18.996203    3.2430343    11.120146   0.88987959 
   90900    300.56488    2952.0767    11014.522   -197.49034    2.9520767    11.014522   0.88964232 
   91000    296.25222    2993.0913    10939.853    -1141.097    2.9930913    10.939853   0.88829211 
   91100    299.98697    2971.3053    11018.249   -1375.6019    2.9713053    11.018249   0.88790715 
   91200    302.50142    3051.3835    11165.775   -573.01989    3.0513835    11.165775   0.88862084 
   91300    298.90205    3185.2099    11203.051    556.82071    3.1852099    11.203051   0.88991522 
   91400    297.83665    3170.2986    11159.561    1296.9782    3.1702986    11.159561   0.89146098 
   91500    303.57954    2840.0664    10983.378    1363.4781    2.8400664    10.983378   0.89206266 
   91600     292.9103    3098.3187    10955.435    161.17338    3.0983187    10.955435   0.89142156 
   91700    300.99849    2956.2074    11030.284    874.04102    2.9562074    11.030284   0.89046113 
   91800    298.52246     3096.347    11104.006   -546.45548     3.096347    11.104006    0.8896058 
   91900    300.22157    3103.7254    11156.962   -710.49847    3.1037254    11.156962   0.88843579 
   92000    303.74714    3044.3051    11192.112     262.7405    3.0443051    11.192112   0.88717461 
   92100    296.59018     3205.292    11161.119   -1833.5791     3.205292    11.161119    0.8865304 
   92200    299.72752    2943.7346    10983.718   -248.73425    2.9437346    10.983718   0.88630527 
   92300    298.69629     2982.658     10994.98    540.28382     2.982658     10.99498   0.88540522 
   92400     297.9215    3152.6733    11144.212   -104.87298    3.1526733    11.144212   0.88457066 
   92500    298.66324    3172.2391    11183.674    1697.9363    3.1722391    11.183674   0.88408943 
   92600    303.75929    3004.7295    11152.863    704.58998    3.0047295    11.152863    0.8841406 
   92700    297.14372    3173.5898    11144.265   -654.33525    3.1735898    11.144265   0.88417601 
   92800    300.44015    2954.6299    11013.729     340.9117    2.9546299    11.013729    0.8854592 
   92900    293.34987    3028.6468    10897.555   -1542.9306    3.0286468    10.897555   0.88808185 
   93000    300.60922    2904.5922    10968.227   -259.84629    2.9045922    10.968227   0.89059994 
   93100    298.15815     3112.434    11110.321   -107.65498     3.112434    11.110321   0.89261884 
   93200    299.30198     3093.663    11122.232     813.9066     3.093663    11.122232   0.89388147 
   93300    301.48349    3057.7392    11144.826    760.08926    3.0577392    11.144826   0.89289926 
   93400    304.74616    2916.4726    11091.078     1000.748    2.9164726    11.091078   0.89189794 
   93500    296.50398    3060.0121    11013.527   -410.60923    3.0600121    11.013527   0.89142103 
   93600    297.00345     2966.531    10933.444    -331.9774     2.966531    10.933444   0.89085847 
   93700    295.95375    3087.3542    11026.109    236.88593    3.0873542    11.026109   0.88979647 
   93800    304.17928    3027.3032    11186.702    -844.2864    3.0273032    11.186702   0.88815377 
   93900    297.35515    3260.1139     11236.46   -347.61271    3.2601139     11.23646   0.88662175 
   94000     305.0052    2949.3267    11130.881    222.61718    2.9493267    11.130881   0.88545353 
   94100    296.21672    3071.5251    11017.334   -209.73782    3.0715251    11.017334   0.88459266 
   94200    299.14587    3029.1135    11053.495    25.787206    3.0291135    11.053495   0.88399207 
   94300    300.97994     3032.956    11106.535    -316.6425     3.032956    11.106535   0.88418715 
   94400    302.55355    3023.7004     11139.49   -830.89367    3.0237004     11.13949   0.88514486 
   94500    296.72947    3194.3288    11153.892   -909.19662    3.1943288    11.153892   0.88719595 
   94600    302.32305    3027.0741    11136.681   -72.802697    3.0270741    11.136681   0.88996152 
   94700    299.83921    3071.2718    11114.252    851.09541    3.0712718    11.114252   0.89180643 
   94800    300.44732    3039.3136    11098.606    1406.9746    3.0393136    11.098606   0.89195893 
   94900    297.64349    3144.8099    11128.891    475.12582    3.1448099    11.128891   0.89108552 
   95000    302.46206    2997.0067    11110.343    360.31288    2.9970067    11.110343   0.89000314 
   95100    300.00117    3073.9436    11121.268    41.720144    3.0739436    11.121268   0.88885206 
   95200    298.21228    3101.2768    11100.615    -992.5968    3.1012768    11.100615   0.88845707 
   95300     300.8011    3055.6677     11124.45   -636.48269    3.0556677     11.12445   0.88768664 
   95400    301.84745    3116.3876    11213.237    203.80047    3.1163876    11.213237   0.88656383 
   95500    304.22459    3187.0293    11347.644    120.27498    3.1870293    11.347644   0.88605055 
   95600    306.12277    3114.2526    11325.784   -5.5194905    3.1142526    11.325784   0.88676436 
   95700    300.57251    3073.6484    11136.298   -270.58282    3.0736484    11.136298   0.88862885 
   95800    297.58108    3079.4455    11061.853    746.17332    3.0794455    11.061853   0.89103596 
   95900    300.42574    2960.2578    11018.971    334.89109    2.9602578    11.018971   0.89197379 
   96000    299.73241    2991.6121    11031.727    915.22779    2.9916121    11.031727   0.89150269 
   96100    299.78719    3165.7009    11207.285   -55.387136    3.1657009    11.207285   0.89033473 
   96200    299.77758    3242.1943    11283.521   -420.15159    3.2421943    11.283521   0.88793933 
   96300    302.21059    3060.6664    11167.257   -410.84829    3.0606664    11.167257   0.88546225 
   96400    300.33463     3055.595    11111.864   -1637.5773     3.055595    11.111864   0.88379232 
   96500    304.17423     2949.032    11108.296   -392.91605     2.949032    11.108296   0.88338827 
   96600    297.84538    3148.0078    11137.505   -28.873882    3.1480078    11.137505   0.88361151 
   96700    301.83339    3202.8776     11299.35    779.39742    3.2028776     11.29935   0.88472232 
   96800    305.55859    3201.6749    11398.073     882.2664    3.2016749    11.398073    0.8874731 
   96900     303.8879    3108.2032    11259.786    349.38215    3.1082032    11.259786   0.89184231 
   97000    304.46936    2976.6638    11143.844      217.512    2.9766638    11.143844   0.89568009 
   97100    296.79937    3124.4615      11085.9   -632.22339    3.1244615      11.0859   0.89806231 
   97200    292.75937    3193.9016     11046.97   -1183.5198    3.1939016     11.04697   0.89773682 
   97300    301.29726    3018.0388     11100.13   -635.67068    3.0180388     11.10013   0.89576295 
   97400    303.92115    3105.7361    11258.211    -435.3424    3.1057361    11.258211   0.89337853 
   97500    302.69167    3092.1144     11211.61     504.6915    3.0921144     11.21161   0.89118251 
   97600    299.49059    3049.0427    11082.671    1786.4578    3.0490427    11.082671   0.88929027 
   97700    298.92118    3012.0217    11030.376    669.27946    3.0120217    11.030376   0.88750382 
   97800    298.98985    3044.9789    11065.175    91.544058    3.0449789    11.065175   0.88569354 
   97900    298.96201    3129.0768    11148.526   -681.32631    3.1290768    11.148526   0.88587309 
   98000    297.94045    3268.1431     11260.19   -1314.5898    3.2681431     11.26019   0.88781753 
   98100    307.54622    3033.3512    11283.066   -366.47622    3.0333512    11.283066   0.89082868 
   98200    301.46092     2973.863    11060.344   -1344.9355     2.973863    11.060344   0.89269653 
   98300    295.30102    3083.0523    11004.298   -641.07852    3.0830523    11.004298   0.89378388 
   98400    300.98052    2990.8554     11064.45     296.3118    2.9908554     11.06445   0.89429824 
   98500    297.79922    3178.7168    11166.975    390.94769    3.1787168    11.166975   0.89276868 
   98600    305.49358    3037.9437    11232.598    1399.7065    3.0379437    11.232598   0.89072821 
   98700     301.9941     3064.922    11165.705    1104.6645     3.064922    11.165705   0.88823547 
   98800     297.2195    3024.8459    10997.554   -475.80574    3.0248459    10.997554   0.88564862 
   98900    297.89337     3026.809    11017.593   -834.07716     3.026809    11.017593   0.88440284 
   99000    298.13608    3137.6154     11134.91   -364.59218    3.1376154     11.13491   0.88429963 
   99100    302.88142    3088.8356    11213.421   -545.92926    3.0888356    11.213421   0.88584503 
   99200    301.84818    3116.0349    11212.904   -713.66086    3.1160349    11.212904   0.88792429 
   99300    299.43879    3151.0873    11183.326   -265.51665    3.1510873    11.183326   0.89001692 
   99400    299.65288    3103.2274    11141.209   -483.21651    3.1032274    11.141209   0.89210628 
   99500    301.17542    3015.0048    11093.827    898.86089    3.0150048    11.093827   0.89334234 
   99600    300.72512    3048.5014    11115.245    1229.8236    3.0485014    11.115245   0.89348922 
   99700    295.55622     3196.717    11124.809    213.86394     3.196717    11.124809   0.89214516 
   99800    300.46011    3039.5643    11099.199    582.79375    3.0395643    11.099199   0.88918433 
   99900    300.50157    2943.9061    11004.653   -284.39784    2.9439061    11.004653   0.88631007 
  100000    298.02636    2984.2408    10978.592     -128.933    2.9842408    10.978592    0.8842233 
  100100    297.39649    3111.0075    11088.463   -38.312501    3.1110075    11.088463   0.88394877 
  100200    300.78916    3152.3685     11220.83   -1309.0885    3.1523685     11.22083   0.88528096 
  100300    302.26159    3126.4323    11234.391   -581.45878    3.1264323    11.234391    0.8866438 
  100400    303.17435    3026.3738    11158.816    -406.2457    3.0263738    11.158816   0.88882063 
  100500    298.28093    3047.1854    11048.365   -994.93707    3.0471854    11.048365   0.89087466 
  100600    292.29689     3021.084    10861.746    715.43781     3.021084    10.861746   0.89334567 
  100700    296.27219    2968.5087    10915.806   -119.78026    2.9685087    10.915806   0.89516101 
  100800    297.66455    3032.0861    11016.732    881.21447    3.0320861    11.016732   0.89520989 
  100900    303.30808    2939.3575    11075.387    119.98137    2.9393575    11.075387   0.89346992 
  101000    301.21317    3046.2081    11126.043   -773.26231    3.0462081    11.126043   0.89149994 
  101100    297.78122    3151.2803    11139.056    907.10346    3.1512803    11.139056   0.89011262 
  101200    300.06627    3047.5949    11096.665    414.74315    3.0475949    11.096665   0.88892865 
  101300    298.74454     3035.096    11048.712   -384.53259     3.035096    11.048712   0.88777059 
  101400    298.33691    3008.5014    11011.183   -139.13346    3.0085014    11.011183    0.8878137 
  101500     302.2402    2975.0982    11082.483   -1355.7329    2.9750982    11.082483   0.88936248 
  101600    303.21517    3102.3841    11235.922   -791.94479    3.1023841    11.235922   0.89057663 
  101700    302.72993    3114.3106    11234.832    279.76024    3.1143106    11.234832   0.89220389 
  101800    300.27667    3050.4484    11105.163    615.43547    3.0504484    11.105163   0.89300051 
  101900    300.16878    3003.8976    11055.718    916.83557    3.0038976    11.055718   0.89152994 
  102000    301.33495    3004.6108    11087.713   -189.70758    3.0046108    11.087713   0.89007597 
  102100    299.02072    3142.6579    11163.682   -69.175151    3.1426579    11.163682   0.88912441 
  102200    300.36495    3217.5192    11274.602    217.41775    3.2175192    11.274602   0.88832034 
  102300    305.24113    3067.7472     11255.63    159.19937    3.0677472     11.25563   0.88746115 
  102400    295.98357    3134.0367    11073.592    183.67317    3.1340367    11.073592   0.88715177 
  102500    293.98514    3137.9611     11023.91   -181.67498    3.1379611     11.02391   0.88734312 
  102600    304.15293    2952.5246    11111.217   -61.884851    2.9525246    11.111217   0.88757873 
  102700    297.94219    3239.0629    11231.157    385.24339    3.2390629    11.231157   0.88905152 
  102800    303.71457    3098.3747    11245.308    -592.2764    3.0983747    11.245308    0.8906978 
  102900    300.80026    3124.5425    11193.302    77.002198    3.1245425    11.193302   0.89185902 
  103000     298.7964     3138.067    11153.074   -302.47172     3.138067    11.153074   0.89243609 
  103100    299.83368    3089.8139    11132.645    -398.5477    3.0898139    11.132645   0.89295137 
  103200    299.07164    3127.7161    11150.106    681.40475    3.1277161    11.150106   0.89454299 
  103300    306.97649     3000.618    11235.051   -355.10181     3.000618    11.235051   0.89603937 
  103400    304.84273    3155.7311    11332.927    636.29441    3.1557311    11.332927   0.89711522 
  103500    301.05539      3166.45    11242.053   -114.36799      3.16645    11.242053   0.89778984 
  103600    297.95133    3092.2009     11084.54    -132.3218    3.0922009     11.08454   0.89698599 
  103700    296.63567    3102.4526      11059.5    1140.5049    3.1024526      11.0595   0.89534982 
  103800    298.75614    3105.9199    11119.847    289.23496    3.1059199    11.119847    0.8937969 
  103900    304.64399    3077.9132    11249.778    91.876287    3.0779132    11.249778   0.89173216 
  104000    303.45991    3148.7082    11288.811    -461.4379    3.1487082    11.288811    0.8900415 
  104100    299.29096    3032.1596    11060.433   -1703.3098    3.0321596    11.060433   0.88942045 
  104200    294.89163    3092.6488    11002.913   -359.19743    3.0926488    11.002913   0.89061732 
  104300    304.51497    2917.0389    11085.443    -756.3489    2.9170389    11.085443   0.89198282 
  104400    296.27207    3279.1768    11226.471    638.72372    3.2791768    11.226471   0.89314772 
  104500    299.90004    3215.0288     11259.64    1022.7031    3.2150288     11.25964   0.89336295 
  104600    304.33594    2969.6907    11133.292    706.65551    2.9696907    11.133292   0.89257811 
  104700    296.97565    3026.9867    10993.153    1279.8924    3.0269867    10.993153   0.89266525 
  104800    298.94542     3001.973    11020.978   -301.40034     3.001973    11.020978   0.89251635 
  104900     298.8302    3125.4859      11141.4   -60.926232    3.1254859      11.1414   0.89266424 
  105000    300.99793    3125.2115    11199.273   -785.02671    3.1252115    11.199273   0.89339882 
  105100     301.0665    3110.4511    11186.352   -582.26258    3.1104511    11.186352   0.89324558 
  105200    302.27766    2960.4305     11068.82   -106.72685    2.9604305     11.06882   0.89263693 
  105300    289.31274    3185.3201    10945.935   -1303.2328    3.1853201    10.945935   0.89025281 
  105400    301.99762    2932.0548    11032.933    733.04173    2.9320548    11.032933   0.88732782 
  105500     295.2547    3261.4507    11181.454   -374.86805    3.2614507    11.181454   0.88572694 
  105600    300.13003    3171.2175    11221.998    286.42521    3.1712175    11.221998   0.88609566 
  105700    303.74984    3069.4083    11217.288    709.75795    3.0694083    11.217288   0.88905375 
  105800    299.49879    3057.3122    11091.161   -281.22243    3.0573122    11.091161   0.89281457 
  105900    297.47871    3000.5707    10980.232   -192.55719    3.0005707    10.980232    0.8960431 
  106000    300.00762    2971.9837    11019.481   -344.71064    2.9719837    11.019481   0.89786331 
  106100    295.86721    3164.2846    11100.718    -230.3663    3.1642846    11.100718   0.89809554 
  106200    301.37553    3135.8294     11220.02    871.24435    3.1358294     11.22002   0.89724041 
  106300    303.86851    3074.2359    11225.299    957.88069    3.0742359    11.225299   0.89538557 
  106400    295.24308    3073.1589    10992.851   -1023.7316    3.0731589    10.992851   0.89240247 
  106500    300.85784    2867.9239    10938.228    699.29644    2.8679239    10.938228   0.88908945 
  106600    298.33299    3043.6488    11046.225    485.35941    3.0436488    11.046225   0.88554635 
  106700    296.96594    3243.3382    11209.245   -206.81433    3.2433382    11.209245   0.88261305 
  106800    297.85829    3281.5769     11271.42   -521.04957    3.2815769     11.27142   0.88114212 
  106900    301.95542    3124.9759    11224.722   -584.03654    3.1249759    11.224722   0.88207014 
  107000    300.40961     3018.707    11076.987    159.73376     3.018707    11.076987   0.88427474 
  107100    295.17655    3097.4874    11015.394    367.61526    3.0974874    11.015394   0.88683757 
  107200     298.5401    3065.4367    11073.569    1035.2584    3.0654367    11.073569   0.88964703 
  107300    301.75972     3015.319    11109.815    523.11763     3.015319    11.109815   0.89146857 
  107400     298.4654    3134.9645    11141.093   -50.659329    3.1349645    11.141093   0.89252368 
  107500    304.53794    2936.6772    11105.697   -610.05104    2.9366772    11.105697   0.89351621 
  107600    296.69324    3087.8824    11046.474   -445.56874    3.0878824    11.046474     0.894187 
  107700      295.688    3077.2324    11008.859   -1114.3432    3.0772324    11.008859   0.89415323 
  107800     304.6787    2884.5104    11057.306     481.9674    2.8845104    11.057306   0.89398935 
  107900    298.88855    3208.5738    11226.053   -407.09378    3.2085738    11.226053   0.89366722 
  108000    302.92809    3117.4114    11243.248   -246.85295    3.1174114    11.243248   0.89292378 
  108100    302.99952    2982.0754    11109.828     658.2867    2.9820754    11.109828   0.89202272 
  108200    297.88286    3012.5429    11003.045    658.98472    3.0125429    11.003045   0.89067803 
  108300    294.64164    3135.3201    11038.879    434.71133    3.1353201    11.038879   0.88964911 
  108400    304.31905    2921.6789    11084.827    453.16113    2.9216789    11.084827   0.88936776 
  108500    298.38242    3158.3345    11162.237    503.27017    3.1583345    11.162237   0.88891695 
  108600    300.25396    3229.6718    11283.777   -833.90633    3.2296718    11.283777   0.88752601 
  108700    306.18081    3190.0689    11403.158    -836.8929    3.1900689    11.403158   0.88697144 
  108800    301.85406    3198.3385    11295.365   -181.73159    3.1983385    11.295365   0.88777919 
  108900    305.11179    2972.5467     11156.96    253.66666    2.9725467     11.15696    0.8893709 
  109000    300.32917    3085.4753    11141.598    429.88055    3.0854753    11.141598   0.89119276 
  109100    298.58263    3077.7526    11087.026    879.10221    3.0777526    11.087026   0.89289844 
  109200    295.02506    3084.9296    10998.773   -638.40747    3.0849296    10.998773   0.89439308 
  109300    299.50398    2920.3897    10954.377    295.14745    2.9203897    10.954377   0.89510539 
  109400    298.48998    3125.4385    11132.226    416.32099    3.1254385    11.132226   0.89447756 
  109500    304.31055    3058.3106    11221.231    -770.3657    3.0583106    11.221231   0.89321717 
  109600    301.28291    3094.8828    11176.589    955.41747    3.0948828    11.176589   0.89203966 
  109700    300.31819    3018.6387    11074.467    -92.03477    3.0186387    11.074467    0.8891531 
  109800    291.38957    3158.5954    10974.919   -924.70876    3.1585954    10.974919   0.88618167 
  109900    300.66875    2878.0892    10943.321    342.02917    2.8780892    10.943321   0.88445832 
  110000    298.19974    3144.3256    11143.328     286.8247    3.1443256    11.143328   0.88350429 
  110100    305.67004    3028.7656    11228.153   -97.274564    3.0287656    11.228153   0.88324402 
  110200    296.07749    3281.8473    11223.922   -1116.2552    3.2818473    11.223922   0.88421454 
  110300    301.52471    3021.0503    11109.243    433.31092    3.0210503    11.109243   0.88646766 
  110400    298.06365    2969.6991    10965.051    1229.9378    2.9696991    10.965051   0.89015848 
  110500    299.22858    2904.3837    10930.984    -1080.471    2.9043837    10.930984   0.89372434 
  110600    295.60382    3064.8616     10994.23    709.62181    3.0648616     10.99423   0.89728574 
  110700    300.63968    2987.4488    11051.901    240.50729    2.9874488    11.051901   0.89931284 
  110800    297.22909    3121.5655    11094.531    221.23736    3.1215655    11.094531   0.89900296 
  110900    303.62994    2974.7325    11119.396    572.53732    2.9747325    11.119396   0.89584991 
  111000    297.44778    3207.7454    11186.577   -882.35094    3.2077454    11.186577   0.89225098 
  111100    303.64092     3120.153    11265.111    868.17067     3.120153    11.265111   0.88891012 
  111200    297.66644    3313.4012    11298.098    845.78885    3.3134012    11.298098   0.88617061 
  111300    301.46456    3063.8243    11150.403    60.605203    3.0638243    11.150403   0.88474403 
  111400    298.76102    3016.6832    11030.741    158.34571    3.0166832    11.030741   0.88524688 
  111500    301.53317    2937.6329    11026.052   -1747.4093    2.9376329    11.026052   0.88677077 
  111600     298.2819    3101.6246    11102.831   -1620.5788    3.1016246    11.102831   0.88977001 
  111700    303.93957    3108.4174    11261.387    -295.4338    3.1084174    11.261387   0.89273421 
  111800     298.5344    3278.7641    11286.743     119.7653    3.2787641    11.286743   0.89462476 
  111900    303.56087      3072.56    11215.371    1321.2496      3.07256    11.215371   0.89477622 
  112000    300.88957     3022.671    11093.826    752.60853     3.022671    11.093826   0.89398871 
  112100    299.81482    3003.8978    11046.223     229.3173    3.0038978    11.046223   0.89265958 
  112200     300.7007     3020.514    11086.603   -250.91005     3.020514    11.086603   0.89145604 
  112300    299.08251    3188.0004    11210.682   -1869.2548    3.1880004    11.210682   0.89149247 
  112400    302.59484    3232.5196    11349.417   -407.35855    3.2325196    11.349417   0.89129035 
  112500    311.41704    3148.5765    11502.124    162.21011    3.1485765    11.502124   0.89000504 
  112600    300.71707    3324.1611    11390.689   -763.30394    3.3241611    11.390689     0.888453 
  112700    303.58757    3092.7284    11236.255    777.21867    3.0927284    11.236255   0.88794365 
  112800    296.78025    3179.7235    11140.649   -652.30617    3.1797235    11.140649   0.88779573 
  112900    298.30342    3099.6552    11101.439    443.97497    3.0996552    11.101439   0.88807703 
  113000    305.27135    2943.8933    11132.587    1532.1349    2.9438933    11.132587   0.88856235 
  113100     300.2907    3178.7461    11233.837   -47.984386    3.1787461    11.233837    0.8881608 
  113200    303.28327     3178.863    11314.227    532.46436     3.178863    11.314227   0.88788373 
  113300    302.85864    3163.9633    11287.937   -423.67889    3.1639633    11.287937   0.88655567 
  113400    299.29493    3089.3021    11117.682   -384.84683    3.0893021    11.117682   0.88587995 
  113500    299.01658     3022.484    11043.397   -1008.5058     3.022484    11.043397   0.88643331 
  113600    298.43856    3071.1466    11076.555   -2124.8513    3.0711466    11.076555   0.88709823 
  113700    302.12699    3086.8907    11191.239   -482.36488    3.0868907    11.191239   0.88726599 
  113800    300.34471    3271.7395    11328.279     718.1723    3.2717395    11.328279   0.88679927 
  113900    304.44144    3031.6496    11198.081   -239.68559    3.0316496    11.198081   0.88653414 
  114000    298.26835    3009.9228    11010.765    911.39932    3.0099228    11.010765   0.88787618 
  114100    299.91952    2992.5716    11037.706    1105.6914    2.9925716    11.037706   0.88992037 
  114200    296.68975    3175.2803    11133.778    295.64688    3.1752803    11.133778   0.89162021 
  114300    303.15216    3099.4826     11231.33    971.93776    3.0994826     11.23133   0.89278835 
  114400    306.02901    3039.5042    11248.521    426.21161    3.0395042    11.248521   0.89332773 
  114500    299.52585    3033.6039    11068.178   -1141.1214    3.0336039    11.068178   0.89264796 
  114600    297.40981    3018.7584    10996.571   -118.22949    3.0187584    10.996571   0.89146495 
  114700    294.99458    3133.5886    11046.615   -440.84722    3.1335886    11.046615   0.88999302 
  114800    304.73788    2990.3456    11164.729   -825.30968    2.9903456    11.164729   0.88886514 
  114900     297.1357    3274.6593    11245.119    185.46397    3.2746593    11.245119   0.88899792 
  115000    301.00772    3112.9291    11187.253   -272.65096    3.1129291    11.187253   0.88977056 
  115100    305.04899      2918.67    11101.399    1323.0778      2.91867    11.101399   0.89200951 
  115200    295.91346    3183.3584    11121.033    1234.2569    3.1833584    11.121033   0.89430906 
  115300    299.45673    3088.6193    11121.339    288.67772    3.0886193    11.121339   0.89557993 
  115400    302.91202    3011.0675    11136.473    809.64767    3.0110675    11.136473   0.89588161 
  115500    299.15952    3094.4369    11119.185    168.26666    3.0944369    11.119185   0.89515919 
  115600     297.3077    3008.7235    10983.797        501.3    3.0087235    10.983797   0.89332533 
  115700     299.2276    2863.0432    10889.617   -254.89059    2.8630432    10.889617   0.89148197 
  115800    296.07918    3064.5673    11006.687    -1524.499    3.0645673    11.006687   0.88997374 
  115900    301.89324     3021.435    11119.513   -1544.0661     3.021435    11.119513   0.88923161 
  116000    299.35485    3108.7056    11138.693    179.88277    3.1087056    11.138693    0.8892793 
  116100    298.24921    3147.2236    11147.553     692.8052    3.1472236    11.147553   0.88942875 
  116200    301.99094    2944.8264    11045.525    630.91631    2.9448264    11.045525     0.889884 
  116300    291.02041    3155.2625    10961.684    211.15845    3.1552625    10.961684   0.89024787 
  116400    300.54516    2970.9764    11032.893    529.37127    2.9709764    11.032893   0.89064182 
  116500    300.96733    3098.3079    11171.549     29.96119    3.0983079    11.171549   0.89059907 
  116600    302.31136    3072.7606    11182.054   -803.02273    3.0727606    11.182054   0.89071629 
  116700    300.09965    3101.6004    11151.566    151.67213    3.1016004    11.151566   0.89047833 
  116800    297.41712    3123.4056    11101.414   -1071.0501    3.1234056    11.101414   0.89024019 
  116900    299.37562    2978.2815    11008.826    57.181215    2.9782815    11.008826   0.89182509 
  117000    298.04729    2815.6453    10810.558   -746.45395    2.8156453    10.810558   0.89451301 
  117100    291.14747    3060.9771    10870.807   -300.34732    3.0609771    10.870807   0.89816785 
  117200    299.90312     2981.642    11026.336    1327.7761     2.981642    11.026336    0.9004703 
  117300    303.13501    2957.5325     11088.92    1335.8892    2.9575325     11.08892   0.90053162 
  117400    298.24976    3134.3892    11134.733    855.57171    3.1343892    11.134733   0.89953674 
  117500     303.8787    2941.3751    11092.711   -127.97295    2.9413751    11.092711   0.89708192 
  117600    294.93657     3076.599    10988.069   -15.714896     3.076599    10.988069    0.8939597 
  117700    297.96658    2943.8383    10936.586   -1304.4136    2.9438383    10.936586   0.88979972 
  117800    297.41254    3126.1893    11104.075   -1202.1528    3.1261893    11.104075   0.88608212 
  117900    301.70633    3118.7673    11211.831    -3.173066    3.1187673    11.211831   0.88410906 
  118000    298.56744    3204.6281    11213.493   -406.11823    3.2046281    11.213493   0.88351994 
  118100    303.57404    3021.0308    11164.195     316.4993    3.0210308    11.164195   0.88498492 
  118200    297.91669    3070.4753    11061.885    340.19196    3.0704753    11.061885    0.8879705 
  118300    297.46455    2958.4516    10937.733   -647.91926    2.9584516    10.937733   0.89096365 
  118400    298.86249    2973.2957    10990.076    639.84178    2.9732957    10.990076   0.89412474 
  118500    300.54865    3037.2785    11099.289   -277.53718    3.0372785    11.099289   0.89663641 
  118600    301.98847    3003.1773     11103.81    28.841459    3.0031773     11.10381    0.8981195 
  118700    300.10554    3018.8713    11068.995   -55.412971    3.0188713    11.068995   0.89855953 
  118800    299.60271    2944.0369    10980.673   -407.44058    2.9440369    10.980673   0.89771287 
  118900     299.2554    2942.4868    10969.806   -358.33857    2.9424868    10.969806   0.89557665 
  119000    298.60725    3103.2056    11113.139   -255.06626    3.1032056    11.113139   0.89403706 
  119100    298.81723    3224.5974    11240.163   -380.25935    3.2245974    11.240163   0.89276164 
  119200    304.61029    3044.6705    11215.631    811.65167    3.0446705    11.215631   0.89209466 
  119300    299.30255    3068.7782    11097.362   -78.269036    3.0687782    11.097362   0.89142329 
  119400    301.02623    2921.7748    10996.596    1251.1649    2.9217748    10.996596   0.89150977 
  119500    294.39666    3154.6173    11051.604    923.23509    3.1546173    11.051604   0.89124461 
  119600    302.74575    2939.2186    11060.164   -695.26257    2.9392186    11.060164   0.89132023 
  119700    296.74476    3164.3705    11124.344   -584.57817    3.1643705    11.124344   0.89188326 
  119800    298.85709     3099.607    11116.242   -267.40873     3.099607    11.116242   0.89299365 
  119900    303.03232    2922.5214    11051.154   -217.51231    2.9225214    11.051154   0.89410015 
  120000    297.86376    3013.7576    11003.747    -56.56886    3.0137576    11.003747   0.89432514 
  120100    299.98343    2900.9222    10947.771     952.8887    2.9009222    10.947771   0.89397791 
  120200    298.78748    3036.5405    11051.309    967.46168    3.0365405    11.051309   0.89380928 
  120300    303.14737    3038.0596    11169.779    979.19969    3.0380596    11.169779   0.89327198 
  120400    298.01981     3199.693    11193.869    150.36897     3.199693    11.193869   0.89268905 
  120500    301.06221    3024.9446    11100.731   -1423.9653    3.0249446    11.100731   0.89230903 
  120600    294.97471    3100.9705    11013.463   -1200.0194    3.1009705    11.013463   0.89203286 
  120700    301.31561    2937.8584    11020.442   -682.59074    2.9378584    11.020442   0.89265762 
  120800    299.99362    3038.1944    11085.316   -307.14135    3.0381944    11.085316   0.89302921 
  120900    301.64805    3030.5132    11122.014    2381.7336    3.0305132    11.122014   0.89241383 
  121000    301.16003    3025.8842    11104.294    777.21975    3.0258842    11.104294   0.89199651 
  121100    297.87065    3030.6357     11020.81   -7.3416185    3.0306357     11.02081   0.89245875 
  121200    298.83487    2914.3524    10930.391    315.63182    2.9143524    10.930391   0.89265445 
  121300    300.84768    2942.2014    11012.233   -829.50571    2.9422014    11.012233   0.89292662 
  121400    298.16745    3213.5725    11211.708   -998.02877    3.2135725    11.211708   0.89154098 
  121500    303.32702    3028.4769    11165.015   -1136.4913    3.0284769    11.165015   0.89062027 
  121600    299.90563    3079.5703    11124.332   -569.02174    3.0795703    11.124332   0.89039977 
  121700    301.73361    2923.4286    11017.224    348.05511    2.9234286    11.017224   0.89051022 
  121800    295.26664    3000.9284    10921.252    320.69813    3.0009284    10.921252   0.89131713 
  121900    294.43563    2849.8705    10747.903    1917.8961    2.8498705    10.747903   0.89147564 
  122000    294.59449    3030.6493    10932.943   -202.83096    3.0306493    10.932943   0.89130033 
  122100    295.99446    3112.1006    11051.948    1162.3974    3.1121006    11.051948   0.89215757 
  122200    307.48442    2873.0403    11121.098    278.42785    2.8730403    11.121098   0.89323532 
  122300    303.14078    3089.6703    11221.213    -1524.061    3.0896703    11.221213   0.89387183 
  122400    298.39772    3202.1533    11206.466    7.5357544    3.2021533    11.206466   0.89348169 
  122500    294.57287    3158.8533    11060.567   -282.17122    3.1588533    11.060567   0.89367621 
  122600    298.18173     2941.286    10939.805   -79.773956     2.941286    10.939805   0.89288699 
  122700    296.32676     3086.684    11035.445    592.87539     3.086684    11.035445   0.89063518 
  122800    305.01616    2941.2212    11123.069   -776.16217    2.9412212    11.123069   0.88865631 
  122900    299.44625    3105.6323    11138.071    1010.8328    3.1056323    11.138071   0.88756543 
  123000    299.79348    3108.6941    11150.447    639.29284    3.1086941    11.150447   0.88721679 
  123100    301.54606    3059.1258    11147.891   -60.026899    3.0591258    11.147891   0.88725893 
  123200    299.45301    3132.9173    11165.538   -238.31641    3.1329173    11.165538   0.88794581 
  123300    302.58233    3089.8295    11206.391   -587.23462    3.0898295    11.206391   0.88944263 
  123400    301.12904    3050.4683    11128.047    -786.1054    3.0504683    11.128047   0.89007998 
  123500    298.33086    3032.3911    11034.911   -740.44842    3.0323911    11.034911   0.89197582 
  123600    299.35856    2942.6752    10972.762    752.29513    2.9426752    10.972762   0.89388287 
  123700    300.18318    2972.3849    11024.591    746.13713    2.9723849    11.024591   0.89561843 
  123800    300.38373    3160.2497    11217.836     516.8921    3.1602497    11.217836   0.89629931 
  123900    305.07944    3001.6779    11185.223    909.55821    3.0016779    11.185223   0.89503605 
  124000    299.07421    3067.9969    11090.456   -926.76948    3.0679969    11.090456   0.89235501 
  124100    297.83375    3044.0283    11033.213   -168.14191    3.0440283    11.033213   0.88832615 
  124200    299.47907    3024.1278    11057.447   -487.70933    3.0241278    11.057447   0.88544508 
  124300    298.55124    3088.1471    11096.578   -1325.4032    3.0881471    11.096578   0.88398003 
  124400    301.05522    3075.1543    11150.753     494.7084    3.0751543    11.150753   0.88447727 
  124500    301.11803    3134.7197    11212.003    -275.5215    3.1347197    11.212003   0.88695407 
  124600    308.34377    2973.1044    11244.213    1276.7253    2.9731044    11.244213    0.8900306 
  124700    298.11632     3230.869    11227.633    793.18712     3.230869    11.227633   0.89226461 
  124800    300.04582    3031.8468    11080.369    -875.0116    3.0318468    11.080369   0.89321564 
  124900    298.08844    3017.1416    11013.158   -120.99963    3.0171416    11.013158   0.89331108 
  125000    299.73496    2977.3152    11017.499    1.6686778    2.9773152    11.017499   0.89310199 
  125100    297.76869    3220.7006     11208.14   -254.56175    3.2207006     11.20814   0.89215143 
  125200    305.09112    3091.0069    11274.865    544.98143    3.0910069    11.274865   0.89156361 
  125300    302.35228     3085.846    11196.237   -58.989918     3.085846    11.196237   0.89115688 
  125400    301.02395    3034.6403      11109.4   -28.122434    3.0346403      11.1094   0.89071175 
  125500    301.55545    2990.8759    11079.893    226.13126    2.9908759    11.079893   0.88981752 
  125600    300.46898    3042.3398    11102.213   -1053.3547    3.0423398    11.102213   0.88943053 
  125700    302.43201    3125.0039    11237.534   -407.98368    3.1250039    11.237534   0.88927047 
  125800    305.87776    3160.0378    11364.997    165.56701    3.1600378    11.364997   0.88998851 
  125900    304.60245    3099.7845    11270.535   -527.11039    3.0997845    11.270535    0.8907595 
  126000    298.85564    3155.3734     11171.97   -556.13823    3.1553734     11.17197   0.89159507 
  126100     302.2805    2985.3913    11093.857    597.42775    2.9853913    11.093857   0.89304136 
  126200    296.54368    3128.5765    11083.156    370.23969    3.1285765    11.083156   0.89403777 
  126300    299.83485    3008.5111    11051.374    568.11867    3.0085111    11.051374   0.89556675 
  126400    300.16522    2949.0507    11000.775    1248.7765    2.9490507    11.000775   0.89632913 
  126500    296.70072     2982.523    10941.315    1594.7545     2.982523    10.941315   0.89582054 
  126600    299.73464    2976.4506    11016.625    194.21698    2.9764506    11.016625   0.89489868 
  126700    302.22059    3058.2415      11165.1    -1200.201    3.0582415      11.1651   0.89374765 
  126800    301.81466    3077.8292    11173.799   -2052.8969    3.0778292    11.173799   0.89182341 
  126900    297.80104    3120.2105    11108.518   -1081.2423    3.1202105    11.108518   0.89009078 
  127000    301.39643    2985.8287     11070.58    -1107.129    2.9858287     11.07058   0.88857324 
  127100     300.2262    3047.5727    11100.933    16.254578    3.0475727    11.100933   0.88792095 
  127200    299.69104    3085.4959    11124.501    2071.1477    3.0854959    11.124501   0.88832544 
  127300    299.63675    3099.9789    11137.528    1687.0229    3.0999789    11.137528   0.88867246 
  127400    297.19803    3173.4571    11145.589    1256.1319    3.1734571    11.145589    0.8883211 
  127500    299.74385    3060.9766    11101.399   -120.34133    3.0609766    11.101399   0.88769267 
  127600    299.16232    3017.0994    11041.922   -1259.5321    3.0170994    11.041922   0.88704394 
  127700    293.69674    3194.0197    11072.232   -1203.0263    3.1940197    11.072232   0.88674479 
  127800    302.70141    3079.1303    11198.887    -625.8026    3.0791303    11.198887   0.88768926 
  127900    302.50042    3155.1748     11269.54   -836.75423    3.1551748     11.26954   0.88898891 
  128000    301.84143    3102.4351    11199.123    397.31245    3.1024351    11.199123    0.8897089 
  128100    298.03947    3037.1498    11031.853    1020.5564    3.0371498    11.031853   0.89082524 
  128200    296.63633    3043.8878    11000.953    108.94699    3.0438878    11.000953   0.89134913 
  128300    302.20082    2930.1059    11036.434    689.72256    2.9301059    11.036434   0.89074546 
  128400     298.9176    3148.4234    11166.682    455.20982    3.1484234    11.166682   0.89009242 
  128500    303.70526     3071.946     11218.63   -345.90562     3.071946     11.21863   0.88917493 
  128600    300.41089    3080.8128    11139.127    -212.0813    3.0808128    11.139127   0.88896106 
  128700    297.27297    2987.4559    10961.598    667.93565    2.9874559    10.961598   0.88836961 
  128800    297.98129    2984.2301    10977.372    -504.3529    2.9842301    10.977372   0.88723624 
  128900    301.47288     2994.241    11081.043   -1065.3215     2.994241    11.081043   0.88565229 
  129000    299.21556     3160.386    11186.637   -949.84832     3.160386    11.186637   0.88451981 
  129100    303.66783    3043.9326    11189.613   -1272.1701    3.0439326    11.189613   0.88426182 
  129200    300.42444    3079.5534    11138.232     1003.979    3.0795534    11.138232   0.88448432 
  129300    294.03414    3218.0108    11105.274    941.08359    3.2180108    11.105274   0.88524887 
  129400    303.22293    3087.6232    11221.369   -25.958438    3.0876232    11.221369   0.88614848 
  129500     301.1507    3253.9397    11332.099    1086.0723    3.2539397    11.332099   0.88648208 
  129600    300.77677    3200.9179    11269.047    366.21849    3.2009179    11.269047   0.88657886 
  129700     301.7756    3031.1925    11126.114   -839.99049    3.0311925    11.126114   0.88641469 
  129800    300.35059    3040.5489    11097.246   -1247.2891    3.0405489    11.097246   0.88664993 
  129900    296.31512    3159.9102    11108.359   -1240.4565    3.1599102    11.108359    0.8869982 
  130000     299.3365      3110.35    11139.845    289.78482      3.11035    11.139845   0.88723726 
  130100    305.07275    3061.7343      11245.1   -130.68103    3.0617343      11.2451   0.88698908 
  130200    300.21497    3212.1124    11265.172    833.64196    3.2121124    11.265172   0.88630001 
  130300    300.07866    3076.9113    11126.314    148.02755    3.0769113    11.126314   0.88673198 
  130400    300.48422    2987.6165    11047.898    613.72976    2.9876165    11.047898   0.88696911 
  130500    299.18342    3061.2119    11086.601    667.97949    3.0612119    11.086601   0.88745637 
  130600    301.72458    3094.5878    11188.141   -106.96308    3.0945878    11.188141   0.88782835 
  130700    297.69838    3217.5565     11203.11    203.40325    3.2175565     11.20311   0.88825922 
  130800    300.37801    3116.3202    11173.753   -125.82849    3.1163202    11.173753   0.88873508 
  130900    298.42831    3095.5365     11100.67   -293.69074    3.0955365     11.10067    0.8889567 
  131000    300.55961    2931.6291    10993.933       -677.8    2.9316291    10.993933   0.88906183 
  131100    294.84094    3123.3999    11032.305   -281.94088    3.1233999    11.032305   0.88883282 
  131200      306.057    3026.2554    11236.023   -87.986744    3.0262554    11.236023   0.88759437 
  131300    297.09293    3264.7249    11234.038   -71.895751    3.2647249    11.234038   0.88637821 
  131400    299.04029    3121.3675    11142.917   -127.06391    3.1213675    11.142917   0.88570975 
  131500    299.74643    2994.8262    11035.317    447.92262    2.9948262    11.035317    0.8855901 
  131600    299.02116    3001.8617    11022.898   -408.41769    3.0018617    11.022898   0.88704391 
  131700    299.48052    3089.9808    11123.339    638.36384    3.0899808    11.123339    0.8900473 
  131800    303.79049    3113.1962    11262.166    543.96596    3.1131962    11.262166   0.89203575 
  131900     301.4912    3146.7718    11234.065    346.18652    3.1467718    11.234065   0.89305898 
  132000    297.94017    3101.8191    11093.859   -151.09904    3.1018191    11.093859   0.89343031 
  132100    299.36387    2985.4163    11015.646   -164.60471    2.9854163    11.015646   0.89266841 
  132200     300.3006    2983.5532    11038.909   -672.18719    2.9835532    11.038909   0.89069549 
  132300    295.74622    3173.4645    11106.653   -167.64181    3.1734645    11.106653   0.88896184 
  132400    302.37757    3046.9162    11157.986    158.78578    3.0469162    11.157986   0.88715589 
  132500    303.41048    3069.5284    11208.305    766.39381    3.0695284    11.208305   0.88570423 
  132600    301.85075    3254.5849    11351.523    224.90155    3.2545849    11.351523   0.88504551 
  132700    303.84502    3187.4135    11337.846   -1141.3101    3.1874135    11.337846     0.884772 
  132800    304.24932    3032.4809    11193.759   -1118.1548    3.0324809    11.193759   0.88537629 
  132900     293.8743    3209.6124    11092.588    394.52125    3.2096124    11.092588   0.88666644 
  133000    302.28872    2938.0103    11046.696    508.16518    2.9380103    11.046696   0.88770356 
  133100    294.76581    3213.5293    11120.419    439.61865    3.2135293    11.120419   0.88931308 
  133200    303.07561     3153.351    11283.145    661.28388     3.153351    11.283145   0.89172602 
  133300    305.94384    3118.7571    11325.489    686.18378    3.1187571    11.325489   0.89269637 
  133400    297.71791    3224.3513    11210.429   -507.50944    3.2243513    11.210429   0.89290549 
  133500    304.10856    2947.3511    11104.853   -523.88239    2.9473511    11.104853   0.89190197 
  133600    296.36812    3107.8192    11057.689    545.59187    3.1078192    11.057689   0.89062559 
  133700    300.97516    2941.5411    11014.992   -1010.5008    2.9415411    11.014992   0.88897968 
  133800    294.39965    3153.4077    11050.475   -168.23085    3.1534077    11.050475   0.88760048 
  133900     307.9806     2903.316    11164.683    320.36991     2.903316    11.164683   0.88805863 
  134000    302.42584    3117.8559     11230.22   -590.85418    3.1178559     11.23022   0.88922729 
  134100    298.39501    3133.3938    11137.634    554.72805    3.1333938    11.137634    0.8908366 
  134200    296.75827    3023.1769    10983.513   -394.06285    3.0231769    10.983513   0.89227145 
  134300      301.668    2866.2804    10958.316    506.83111    2.8662804    10.958316    0.8938418 
  134400    297.47462    3031.6378    11011.189    488.19717    3.0316378    11.011189     0.894802 
  134500     298.7785    3022.0981    11036.625     194.9046    3.0220981    11.036625   0.89531482 
  134600    301.32511    3007.0742    11089.912    434.82864    3.0070742    11.089912   0.89515164 
  134700    301.01427    3077.3737    11151.874   -780.27453    3.0773737    11.151874   0.89319783 
  134800    301.58917    3184.8208    11274.742   -374.43913    3.1848208    11.274742   0.89039856 
  134900     306.2322    3124.5611    11339.028   -280.17718    3.1245611    11.339028    0.8873856 
  135000    301.12228    3111.1661    11188.563   -134.19999    3.1111661    11.188563   0.88522903 
  135100    297.89253    3124.4619    11115.223    185.21698    3.1244619    11.115223   0.88415795 
  135200    298.44308     3091.573    11097.102    348.13318     3.091573    11.097102   0.88507198 
  135300    299.85089    3097.0893    11140.383    442.82059    3.0970893    11.140383   0.88615504 
  135400    307.25243    3030.6631    11272.497   -313.26874    3.0306631    11.272497   0.88654056 
  135500    299.93394    3277.1787      11322.7    -668.8775    3.2771787      11.3227    0.8868044 
  135600    302.27334     3048.292    11156.566    196.63801     3.048292    11.156566   0.88823364 
  135700    294.89333    3132.8189    11043.129   -696.77352    3.1328189    11.043129   0.89128547 
  135800    301.77128    2971.1727    11065.979    189.20963    2.9711727    11.065979   0.89488302 
  135900    303.37695    2990.8114    11128.689    1450.0302    2.9908114    11.128689    0.8965491 
  136000    300.11084    3152.3096    11202.576   -815.84895    3.1523096    11.202576   0.89550442 
  136100    305.95425    3044.2939    11251.305    262.94078    3.0442939    11.251305   0.89349569 
  136200    302.60676    3017.4781    11134.695    48.268034    3.0174781    11.134695   0.89119905 
  136300    298.62734     3015.354    11025.826   -912.57238     3.015354    11.025826   0.88942054 
  136400    293.99244    3136.4207    11022.565   -128.10134    3.1364207    11.022565   0.88820443 
  136500    303.24224    2983.6625    11117.926   -828.31279    2.9836625    11.117926   0.88738496 
  136600    301.03791    3213.5735    11288.708    -1249.337    3.2135735    11.288708   0.88766983 
  136700    302.46379    3168.1586    11281.541    503.63945    3.1681586    11.281541   0.88797072 
  136800    299.29575    3167.9451    11196.347    1742.2259    3.1679451    11.196347   0.88762976 
  136900    300.74021    3031.7217     11098.87    647.69729    3.0317217     11.09887   0.88711579 
  137000    299.51028    3001.2095    11035.366    420.98752    3.0012095    11.035366   0.88714453 
  137100    296.91804    3071.4777    11036.099    504.57054    3.0714777    11.036099   0.88777219 
  137200    302.13499    3018.6093    11123.172   -443.14664    3.0186093    11.123172   0.88845874 
  137300     299.0864    3233.6529    11256.439   -889.50541    3.2336529    11.256439   0.88911279 
  137400    303.23686    3136.1534    11270.273    -381.9977    3.1361534    11.270273   0.88918386 
  137500    299.70658    3059.8794    11099.301   -749.33423    3.0598794    11.099301   0.88816527 
  137600     298.9862    3024.1459    11044.244   -202.48416    3.0241459    11.044244   0.88715405 
  137700    294.49715    3145.1033    11044.786    1218.1776    3.1451033    11.044786   0.88745044 
  137800    302.19123    2983.4076    11089.479   -11.471484    2.9834076    11.089479   0.88782028 
  137900    305.39587    2956.8218    11148.855    1036.0993    2.9568218    11.148855   0.88871074 
  138000    300.72753     3129.392      11196.2    1090.7903     3.129392      11.1962   0.89004235 
  138100     297.5967    3184.0816    11166.908   -53.334124    3.1840816    11.166908   0.89045093 
  138200    298.41261    3018.4231    11023.135    116.41011    3.0184231    11.023135   0.89034522 
  138300    300.84888    2887.8427    10957.906   -887.28593    2.8878427    10.957906   0.88962041 
  138400    297.16442    3047.9466    11019.177   -1153.6396    3.0479466    11.019177   0.88945326 
  138500    304.11506    3072.1545    11229.831    584.04703    3.0721545    11.229831    0.8899128 
  138600    304.50278    3055.6619    11223.739    460.70273    3.0556619    11.223739   0.88882077 
  138700    296.24916    3182.1352    11128.814   -441.82238    3.1821352    11.128814   0.88724408 
  138800    300.03549    2991.3541    11039.599    319.72216    2.9913541    11.039599   0.88581484 
  138900    301.96904    2941.7124    11041.823     1317.897    2.9417124    11.041823   0.88492912 
  139000    297.42615     3291.542    11269.793   -225.35478     3.291542    11.269793   0.88528671 
  139100    308.31755    3034.6919    11305.097    86.861305    3.0346919    11.305097   0.88705646 
  139200    297.68698    3198.8731    11184.121    486.46282    3.1988731    11.184121   0.88979556 
  139300    300.23157    3029.0628    11082.567   -759.80071    3.0290628    11.082567   0.89292941 
  139400    300.81043     2954.758     11023.79   -724.51944     2.954758     11.02379   0.89576892 
  139500    295.91522    3056.1365    10993.858   -11.494393    3.0561365    10.993858   0.89762608 
  139600    299.70994    2973.5254    11013.038    494.13346    2.9735254    11.013038   0.89758555 
  139700    303.51904    2986.4434    11128.132    956.48942    2.9864434    11.128132    0.8953768 
  139800    300.95495    3140.3243    11213.233    1112.2466    3.1403243    11.213233   0.89237017 
  139900    300.08428    3160.0433    11209.597    416.32462    3.1600433    11.209597   0.89068728 
  140000    300.35687     2977.786    11034.652   -295.75178     2.977786    11.034652   0.88982129 
  140100    298.31663    2999.0247    11001.162   -1038.2739    2.9990247    11.001162   0.88995489 
  140200    298.21626    3100.5981    11100.043    418.00846    3.1005981    11.100043   0.89056191 
  140300    302.52795    3001.2729    11116.376    -14.70598    3.0012729    11.116376   0.89052473 
  140400    300.86034    3063.2873    11133.658   -65.977345    3.0632873    11.133658   0.89040593 
  140500    294.16453    3217.8222    11108.583    298.59102    3.2178222    11.108583   0.88918069 
  140600    304.21729    2832.9909     10993.41   -903.25517    2.8329909     10.99341   0.88745331 
  140700    293.97343     3102.921    10988.555    356.02448     3.102921    10.988555   0.88625409 
  140800     302.2913     2989.159    11097.915   -184.17815     2.989159    11.097915   0.88646216 
  140900    300.20752    3161.8301     11214.69   -821.93827    3.1618301     11.21469   0.88839619 
  141000    303.77936    3057.0359    11205.707    732.61826    3.0570359    11.205707   0.89111709 
  141100    298.23397    3058.8821    11058.802    1369.8812    3.0588821    11.058802   0.89421145 
  141200    301.32534    2878.8277    10961.672   -110.47318    2.8788277    10.961672   0.89548222 
  141300    296.74923    3061.4712    11021.564     84.86495    3.0614712    11.021564   0.89569584 
  141400    300.07842    3063.4269    11112.823   -189.38959    3.0634269    11.112823     0.895618 
  141500    306.49575    2928.5283    11150.065   -495.23555    2.9285283    11.150065   0.89396965 
  141600    300.12602    3072.8657    11123.539    904.01589    3.0728657    11.123539    0.8897988 
  141700    294.87588    3082.3705    10992.212     76.28791    3.0823705    10.992212   0.88520211 
  141800    297.24733    2977.1364    10950.591    -126.0632    2.9771364    10.950591   0.88124582 
  141900    299.76519    3067.8205    11108.815   -427.04403    3.0678205    11.108815   0.87961072 
  142000    298.32379    3175.5984    11177.928   -1413.0596    3.1755984    11.177928   0.87994586 
  142100    301.56086    3111.4707    11200.633   -140.11393    3.1114707    11.200633   0.88156814 
  142200    301.44371    3082.1334    11168.153     199.5501    3.0821334    11.168153   0.88384312 
  142300    295.86609    3089.8836    11026.287   -492.76719    3.0898836    11.026287   0.88653746 
  142400    296.16077     2972.774    10917.082    314.24949     2.972774    10.917082   0.88931447 
  142500    300.31139    2888.2472    10943.893    623.46185    2.8882472    10.943893   0.89135952 
  142600    298.00807    3192.5804    11186.441    285.92199    3.1925804    11.186441   0.89225145 
  142700    302.42743    3095.5326     11207.94   -124.64906    3.0955326     11.20794   0.89126717 
  142800    302.36461    3019.6976     11130.42    576.15198    3.0196976     11.13042   0.89012393 
  142900    300.94373    2964.5334    11037.141   -15.057453    2.9645334    11.037141   0.88767522 
  143000    297.66665    2996.8143    10981.517    -438.3232    2.9968143    10.981517    0.8856385 
  143100    297.97759    3151.0533    11144.096    16.556018    3.1510533    11.144096    0.8847206 
  143200    299.53811    3227.9808    11262.884   -900.88544    3.2279808    11.262884    0.8846509 
  143300    301.83192    3100.3847    11196.818   -766.51343    3.1003847    11.196818   0.88510751 
  143400    299.51454    3049.9908    11084.262    269.07093    3.0499908    11.084262   0.88616803 
  143500    297.98918    3050.1486    11043.503   -32.560708    3.0501486    11.043503   0.88695057 
  143600    299.37472    3081.3054    11111.825    693.79735    3.0813054    11.111825   0.88721428 
  143700    302.83849    3009.4091    11132.843    627.22446    3.0094091    11.132843   0.88680585 
  143800    299.59053    3081.2357    11117.545   -626.89465    3.0812357    11.117545   0.88615073 
  143900    299.73786    3021.8548    11062.116    320.64804    3.0218548    11.062116   0.88610733 
  144000    299.05853    3064.3686    11086.407    -79.34907    3.0643686    11.086407   0.88597904 
  144100    306.81882    3036.2683    11266.471   -514.87186    3.0362683    11.266471   0.88525609 
  144200    300.71469    3255.7106    11322.175    -801.1639    3.2557106    11.322175   0.88359929 
  144300    304.56859    2987.1616    11157.004   -139.39347    2.9871616    11.157004   0.88185583 
  144400    297.31051    3116.7599    11091.909    143.30535    3.1167599    11.091909   0.88198704 
  144500    297.17459     3109.179    11080.682    1000.5216     3.109179    11.080682   0.88275308 
  144600    297.99457     3170.381     11163.88     429.2922     3.170381     11.16388   0.88373184 
  144700    308.00858    3049.7958    11311.913    56.425224    3.0497958    11.311913   0.88572252 
  144800    303.58712    3256.6559    11400.171    530.66638    3.2566559    11.400171    0.8880064 
  144900    304.87215    3052.1695    11230.155   -776.70416    3.0521695    11.230155   0.88891187 
  145000    299.05267    3137.4427    11159.324   -1048.3623    3.1374427    11.159324   0.88953705 
  145100    302.28841     2926.007    11034.685   -64.108409     2.926007    11.034685    0.8884669 
  145200    296.86721    3028.6075    10991.865    -1161.326    3.0286075    10.991865   0.88603786 
  145300    298.46909     3056.213     11062.44    359.73352     3.056213     11.06244   0.88469623 
  145400    302.08813    3109.6809    11212.986    918.03536    3.1096809    11.212986   0.88348793 
  145500    303.95848    3128.8693    11282.346    946.81142    3.1288693    11.282346   0.88372668 
  145600    300.40545    3159.1433    11217.312    574.90489    3.1591433    11.217312   0.88367847 
  145700    299.46492    3133.3019    11166.242    29.142642    3.1333019    11.166242   0.88331873 
  145800    296.94562    3153.5871    11118.948   -1242.2409    3.1535871    11.118948   0.88405646 
  145900    303.98727    2943.5015     11097.75     188.5759    2.9435015     11.09775   0.88596039 
  146000    299.35199    3164.3218    11194.232    831.24296    3.1643218    11.194232   0.88712174 
  146100    305.98974    3130.3149    11338.278   -539.26769    3.1303149    11.338278   0.88772798 
  146200    301.94672    3242.4379     11341.95   -366.34715    3.2424379     11.34195    0.8882333 
  146300    300.96568    3093.3959    11166.593    360.31501    3.0933959    11.166593   0.88791899 
  146400    299.15509    3067.4727    11092.101   -599.38931    3.0674727    11.092101   0.88730726 
  146500    298.21831     3104.572    11104.072    386.63071     3.104572    11.104072   0.88662572 
  146600    305.57553    2967.4178    11164.271   -310.29213    2.9674178    11.164271   0.88576646 
  146700    298.73571    3282.0238    11295.403    166.24555    3.2820238    11.295403     0.884816 
  146800    309.74448    3061.3439    11370.026    996.28391    3.0613439    11.370026   0.88370669 
  146900    297.83941    3308.0106    11297.347    -242.5546    3.3080106    11.297347   0.88288075 
  147000    297.45212    3134.9618     11113.91   -555.98174    3.1349618     11.11391   0.88388591 
  147100    299.06741    3090.4726    11112.749   -437.09108    3.0904726    11.112749    0.8863862 
  147200    300.77168    3078.2083    11146.201     254.4293    3.0782083    11.146201   0.88903188 
  147300    300.41704    3124.8352    11183.315    476.80776    3.1248352    11.183315   0.89022548 
  147400      301.269    3053.1456    11134.478    380.66176    3.0531456    11.134478   0.88978869 
  147500     298.6754    3036.1987     11047.96   -162.92239    3.0361987     11.04796   0.88825499 
  147600    299.95502    2944.8435     10990.93    444.14252    2.9448435     10.99093   0.88671054 
  147700    295.83746    3140.3718    11076.008   -150.63181    3.1403718    11.076008    0.8846284 
  147800    303.63692     3097.209     11242.06    194.56056     3.097209     11.24206   0.88300636 
  147900    302.11765     3151.093     11255.19    34.823522     3.151093     11.25519   0.88248846 
  148000    302.78102    2986.6955    11108.587   -419.16553    2.9866955    11.108587   0.88168263 
  148100    295.35198    3157.1819    11079.795   -186.71975    3.1571819    11.079795   0.88184337 
  148200     300.5738    3062.0932    11124.778   -572.71024    3.0620932    11.124778   0.88314804 
  148300    300.38932    3078.8731    11136.609   -1.1828253    3.0788731    11.136609   0.88508572 
  148400    300.71629    3107.8984    11174.405   -226.11772    3.1078984    11.174405    0.8857872 
  148500    303.62675     3100.992     11245.57    1031.9913     3.100992     11.24557   0.88634442 
  148600    299.45745    3196.6478    11229.387   -516.16592    3.1966478    11.229387   0.88633929 
  148700      302.161     2986.161    11091.421   -352.32757     2.986161    11.091421   0.88655119 
  148800    295.97174    3115.1435    11054.381    28.988906    3.1151435    11.054381   0.88630586 
  148900    300.57162    3061.1767    11123.803   -1168.6596    3.0611767    11.123803   0.88550445 
  149000     305.9438    3068.6801    11275.411   -106.75775    3.0686801    11.275411   0.88514353 
  149100    302.07503    3180.6536    11283.608    681.03465    3.1806536    11.283608   0.88469484 
  149200    297.04946    3084.3388    11052.486    571.40125    3.0843388    11.052486   0.88486247 
  149300    298.66104    3005.9112    11017.287    -261.1056    3.0059112    11.017287   0.88372858 
  149400    299.98419    2987.8527    11034.722     210.5228    2.9878527    11.034722    0.8825985 
  149500     301.1433    3113.6702    11191.631     400.8626    3.1136702    11.191631   0.88176644 
  149600    302.41021    3110.6094    11222.554   -894.81187    3.1106094    11.222554   0.88053319 
  149700    298.01529    3171.2263    11165.281   -23.921339    3.1712263    11.165281   0.88014039 
  149800    296.26711    3095.6309    11042.792    220.50712    3.0956309    11.042792   0.88132095 
  149900    296.58564    2889.3635    10845.069   -19.910071    2.8893635    10.845069   0.88389996 
  150000    294.83606    3038.7407    10947.515    216.02968    3.0387407    10.947515   0.88721153 
  150100    299.38535    3001.1645     11031.97   -817.81576    3.0011645     11.03197   0.88941796 
  150200    299.21869    3093.7979    11120.133    -31.30147    3.0937979    11.120133   0.89122475 
  150300    302.43658    3067.4733    11180.126    813.67237    3.0674733    11.180126   0.89224079 
  150400    296.81764    3217.9421     11179.87    -563.0301    3.2179421     11.17987   0.89108882 
  150500    300.02314    2978.1058    11026.019    801.76875    2.9781058    11.026019   0.88900869 
  150600    298.19172    2924.0277    10922.815    1504.6882    2.9240277    10.922815   0.88642618 
  150700    296.27696     3088.515     11035.94    -344.6264     3.088515     11.03594   0.88491077 
  150800    301.52845    3044.8737    11133.166   -293.62537    3.0448737    11.133166   0.88352751 
  150900    299.95412    3134.2058    11180.268   -735.89896    3.1342058    11.180268   0.88307798 
  151000    298.96618    3192.4961    11212.057   -1451.0675    3.1924961    11.212057   0.88369812 
  151100    301.42708    3155.3236    11240.897   -434.72428    3.1553236    11.240897   0.88498523 
  151200    303.29618    3023.3706    11159.081     1430.965    3.0233706    11.159081   0.88629111 
  151300    296.57878    3107.5231    11063.044    238.37693    3.1075231    11.063044   0.88604651 
  151400    299.00859    3070.5056    11091.205    877.65954    3.0705056    11.091205   0.88489357 
  151500    300.69156    3116.5918    11182.435    1593.2805    3.1165918    11.182435   0.88311109 
  151600    302.43099    3208.3947    11320.897   -355.86832    3.2083947    11.320897   0.88142541 
  151700     303.9737    3122.4297    11276.314    604.72316    3.1224297    11.276314   0.88046515 
  151800    298.71997    3052.5984    11065.555   -989.92984    3.0525984    11.065555   0.87980243 
  151900    294.30135    3191.7402    11086.171   -2054.8004    3.1917402    11.086171   0.87983618 
  152000    303.76168    3046.8792    11195.076    -105.4576    3.0468792    11.195076   0.88062571 
  152100    302.64397    3108.0587    11226.274   -798.24145    3.1080587    11.226274   0.88195529 
  152200    299.93509    3161.6399    11207.192    210.31776    3.1616399    11.207192   0.88304292 
  152300    298.28541    3007.5316    11008.832    1887.3225    3.0075316    11.008832   0.88300701 
  152400    293.70901     3125.121    11003.662    140.35985     3.125121    11.003662   0.88247054 
  152500    305.46686     2890.193    11084.131   -56.242729     2.890193    11.084131   0.88221461 
  152600    298.38017    3169.8736    11173.715    106.51103    3.1698736    11.173715   0.88246501 
  152700    299.42631    3193.8785    11225.782    -1372.897    3.1938785    11.225782   0.88225388 
  152800    300.13099    3177.8566    11228.663     -521.967    3.1778566    11.228663   0.88207234 
  152900    297.57317    3098.9031    11081.098   -95.284804    3.0989031    11.081098   0.88246979 
  153000    299.28908    2948.6556    10976.878   -918.41644    2.9486556    10.976878   0.88300821 
  153100    296.26658    3080.2355    11027.382   -54.493875    3.0802355    11.027382   0.88445979 
  153200    304.55036     2919.979    11089.332    737.78561     2.919979    11.089332   0.88618943 
  153300     300.4705    3126.4368     11186.35    362.50369    3.1264368     11.18635   0.88662057 
  153400     303.9894    3114.9492    11269.255    579.68787    3.1149492    11.269255   0.88517471 
  153500    302.86192    3301.3541    11425.416    807.54361    3.3013541    11.425416   0.88280181 
  153600    304.62139    3203.2627    11374.521   -553.55286    3.2032627    11.374521   0.87958657 
  153700    300.25333    3152.3069    11206.395   -386.24522    3.1523069    11.206395   0.87738032 
  153800     296.8598    3173.2177    11136.277   -685.05532    3.1732177    11.136277   0.87712255 
  153900    297.97578    3102.5872    11095.582   -1072.5357    3.1025872    11.095582   0.87823279 
  154000    301.06315    3074.0517    11149.863   -45.120159    3.0740517    11.149863   0.88002326 
  154100    300.26998    3265.8996    11320.435    191.89574    3.2658996    11.320435   0.88261499 
  154200     301.7084     3247.096    11340.216   -59.562998     3.247096    11.340216   0.88536129 
  154300    305.67129    3045.9013    11245.323    293.58999    3.0459013    11.245323   0.88669886 
  154400    300.04589    3118.8406    11167.364    1004.9659    3.1188406    11.167364   0.88625222 
  154500    304.00774    2967.5505    11122.348    458.29171    2.9675505    11.122348    0.8855806 
  154600    295.60927    3150.1619    11079.677    994.07945    3.1501619    11.079677   0.88547009 
  154700    299.04187    3049.2519    11070.844    23.913834    3.0492519    11.070844    0.8849636 
  154800    300.14984    3211.5542    11262.866   -778.54094    3.2115542    11.262866   0.88505903 
  154900     301.6265    3204.6531    11295.576   -516.71898    3.2046531    11.295576    0.8842421 
  155000    303.79389     3039.874    11188.935   -1300.4378     3.039874    11.188935   0.88177767 
  155100    298.76067    3066.8039    11080.853   -682.10808    3.0668039    11.080853   0.87933816 
  155200    297.55766    3123.5595    11105.338   -103.07964    3.1235595    11.105338   0.87866061 
  155300    301.30369    3075.9792    11158.243   -37.679445    3.0759792    11.158243   0.87865577 
  155400    299.68695    3164.4381    11203.334    886.47765    3.1644381    11.203334   0.87898805 
  155500    302.37062    3138.1739    11249.057    888.87149    3.1381739    11.249057     0.880166 
  155600    298.84308    3259.1749    11275.434   -697.13723    3.2591749    11.275434   0.88183724 
  155700    299.73907    3115.3709    11155.665    293.63434    3.1153709    11.155665   0.88448474 
  155800    301.15596    2988.8748    11067.175   -600.31434    2.9888748    11.067175   0.88695052 
  155900     294.3767    3153.3015    11049.753   -376.57934    3.1533015    11.049753   0.88852307 
  156000    303.04574    2976.4549    11105.448    504.87028    2.9764549    11.105448   0.89037925 
  156100    301.82198    3171.9093    11268.076    526.48564    3.1719093    11.268076   0.89079058 
  156200     301.7647    3160.6334    11255.263    171.61668    3.1606334    11.255263   0.88915784 
  156300    301.04407    3055.9647    11131.264   -32.060043    3.0559647    11.131264   0.88592288 
  156400    296.24291    3064.4774    11010.989    197.65225    3.0644774    11.010989   0.88339389 
  156500    297.29682      2919.47    10894.252   -1238.5589      2.91947    10.894252   0.88081241 
  156600      291.898    3014.1591    10844.122   -632.47359    3.0141591    10.844122   0.87851898 
  156700    298.37531    3042.1746    11045.886    1141.2669    3.0421746    11.045886   0.87782933 
  156800    300.75766    3121.3309    11188.948      410.909    3.1213309    11.188948   0.87701226 
  156900    300.38487    3218.5007    11276.117    981.92982    3.2185007    11.276117   0.87709768 
  157000    303.79306    3162.9282    11311.967   -528.97612    3.1629282    11.311967    0.8778635 
  157100    298.66606    3169.3974    11180.908   -1200.3915    3.1693974    11.180908    0.8796298 
  157200    301.67394    2967.9464    11060.142    315.46502    2.9679464    11.060142   0.88146941 
  157300    298.77588     3032.678    11047.135   -1462.7215     3.032678    11.047135   0.88343644 
  157400     299.2273    3085.3908    11111.957   -258.86476    3.0853908    11.111957   0.88465008 
  157500    301.26376    3131.6583    11212.851   -271.56959    3.1316583    11.212851   0.88530672 
  157600    303.66415    3048.0718    11193.653    -361.4868    3.0480718    11.193653   0.88557662 
  157700    302.21005     3075.505    11182.081    1495.0278     3.075505    11.182081   0.88479145 
  157800    296.66997    3213.7159    11171.683    604.56092    3.2137159    11.171683    0.8838154 
  157900    303.16086    2987.1645    11119.245    1008.6748    2.9871645    11.119245    0.8823322 
  158000    298.86972    3114.7767     11131.75    154.18467    3.1147767     11.13175   0.88116464 
  158100    297.64464    3137.3032    11121.415   -716.82347    3.1373032    11.121415   0.88037983 
  158200     297.9584    3171.5029    11164.031   -464.67769    3.1715029    11.164031   0.88027803 
  158300    307.01335    3015.8692     11251.29   -748.37797    3.0158692     11.25129   0.88030502 
  158400    300.65619    3272.4226    11337.317    -820.3848    3.2724226    11.337317   0.88010545 
  158500    302.65819    3039.9254    11158.522     612.0336    3.0399254    11.158522   0.88070343 
  158600    298.51975    3057.8422    11065.428    1184.0095    3.0578422    11.065428   0.88168147 
  158700     298.0865    3116.8316    11112.796    652.23626    3.1168316    11.112796   0.88282802 
  158800    302.64101    3058.9058    11177.042   -503.06897    3.0589058    11.177042   0.88424097 
  158900    304.80395    3032.1601    11208.315   -49.678474    3.0321601    11.208315   0.88539253 
  159000    297.04679    3163.6022    11131.677    582.26187    3.1636022    11.131677   0.88664486 
  159100    293.85998     3129.195    11011.786   -317.78505     3.129195    11.011786   0.88616329 
  159200     298.7071     3004.462    11017.074     149.7292     3.004462    11.017074   0.88467218 
  159300    299.76765    3149.8048    11190.865    582.75284    3.1498048    11.190865   0.88290494 
  159400    303.34792    3095.8477    11232.946    726.71938    3.0958477    11.232946    0.8821231 
  159500    299.02008    3197.5988    11218.606    762.93532    3.1975988    11.218606   0.88159649 
  159600    300.00021    3098.1397    11145.438   -1371.2349    3.0981397    11.145438   0.88120797 
  159700    297.99836    3061.1523    11054.753   -930.78616    3.0611523    11.054753   0.88271454 
  159800    301.81552    2912.1097    11008.103    108.68271    2.9121097    11.008103   0.88415416 
  159900    294.08619    3163.7682    11052.427   -27.255946    3.1637682    11.052427   0.88509215 
  160000    298.23906    3135.5148    11135.572    615.62561    3.1355148    11.135572   0.88590199 
  160100     301.4604    3139.3741    11225.841    428.79339    3.1393741    11.225841   0.88643906 
  160200    302.91761    3168.2271    11293.783     652.4531    3.1682271    11.293783   0.88672429 
  160300     301.3818    3140.7297    11225.088   -606.53256    3.1407297    11.225088    0.8862904 
  160400    300.67985    2969.5336    11035.063    424.21881    2.9695336    11.035063    0.8853076 
  160500    297.48959    3025.8802    11005.833    507.12872    3.0258802    11.005833   0.88359269 
  160600    298.45793    3055.4841    11061.412   -820.66815    3.0554841    11.061412   0.88154044 
  160700    301.83064     3082.841    11179.239    870.09993     3.082841    11.179239    0.8795556 
  160800    302.18071    3146.2512     11252.04   -565.79906    3.1462512     11.25204   0.87709549 
  160900    296.98421    3238.1199    11204.516    969.22722    3.2381199    11.204516   0.87552896 
  161000    299.37882    2976.7402     11007.37    590.66146    2.9767402     11.00737   0.87523587 
  161100    295.52442    3043.9277    10971.166   -485.10861    3.0439277    10.971166   0.87626362 
  161200    304.24594    2920.8001    11081.987    817.82936    2.9208001    11.081987   0.87791847 
  161300    298.27238    3181.9287    11182.879   -597.69861    3.1819287    11.182879   0.87978378 
  161400    300.31629    3166.6437    11222.421   -1055.7508    3.1666437    11.222421   0.88133851 
  161500    300.58736    3123.3068    11186.355    392.30547    3.1233068    11.186355   0.88317278 
  161600    296.51444    3031.9304    10985.725   -775.85994    3.0319304    10.985725   0.88445508 
  161700    296.45066    2997.1903    10949.275    1602.7711    2.9971903    10.949275   0.88667233 
  161800    298.51643    3043.0357    11050.533   -439.01529    3.0430357    11.050533   0.88714362 
  161900     301.6786    2992.6693     11084.99   -623.61454    2.9926693     11.08499   0.88649421 
  162000    299.80968    3057.0218     11099.21    645.71746    3.0570218     11.09921   0.88506875 
  162100    299.77112     3110.923    11152.076    174.63578     3.110923    11.152076   0.88331876 
  162200    300.99885    3294.0398    11368.126    989.67134    3.2940398    11.368126   0.88203861 
  162300    304.35747    3248.3034    11412.482   -172.25392    3.2483034    11.412482   0.88132451 
  162400    306.28375    3077.9652    11293.815   -193.88643    3.0779652    11.293815   0.88053615 
  162500    299.08006    3169.0779    11191.694   -983.52585    3.1690779    11.191694   0.88001932 
  162600    299.20474    3107.5589     11133.52   -1841.6772    3.1075589     11.13352   0.88071301 
  162700    298.29466    3098.9489    11100.497    88.631383    3.0989489    11.100497   0.88234353 
  162800    295.99298    3130.3977    11070.205    558.06321    3.1303977    11.070205   0.88471446 
  162900    299.69719    3114.9908    11154.161    346.83099    3.1149908    11.154161   0.88657029 
  163000    301.25651     3181.249    11262.247    1007.2974     3.181249    11.262247   0.88733497 
  163100    306.76053      3042.67     11271.31    520.20925      3.04267     11.27131   0.88698196 
  163200    296.54726    3232.8166    11187.492   -224.98452    3.2328166    11.187492   0.88594345 
  163300    297.13551    3062.2779    11032.733   -577.83658    3.0622779    11.032733   0.88440774 
  163400    295.39898    3137.1589    11061.033   -1479.4601    3.1371589    11.061033   0.88307555 
  163500    301.38216    3043.9266    11128.295    2.9005538    3.0439266    11.128295   0.88258369 
  163600    301.49203    3075.7112    11163.027   -439.60938    3.0757112    11.163027   0.88212106 
  163700    300.68524    3190.1483    11255.822    404.63422    3.1901483    11.255822   0.88230965 
  163800    307.63092    3148.2046    11400.192    1760.9769    3.1482046    11.400192   0.88298578 
  163900    298.74635    3290.1445    11303.809    879.62859    3.2901445    11.303809   0.88377618 
  164000    302.64821    3055.2414    11173.571   -53.533062    3.0552414    11.173571   0.88375847 
  164100    296.35142    3168.8145    11118.237   -306.41339    3.1688145    11.118237   0.88457589 
  164200    299.56409    3064.4242    11100.024   -1167.6304    3.0644242    11.100024   0.88581655 
  164300    297.02206    3165.2065    11132.618   -880.71297    3.1652065    11.132618   0.88721199 
  164400    302.84384    3147.5329     11271.11    383.51183    3.1475329     11.27111   0.88845527 
  164500    301.58025    3254.0061    11343.688   -149.38078    3.2540061    11.343688   0.88814238 
  164600    304.84556    3017.6498    11194.921   -322.83499    3.0176498    11.194921   0.88705103 
  164700    299.93141    3045.3747    11090.828    515.27223    3.0453747    11.090828   0.88543476 
  164800    298.77826    3083.1525    11097.673    441.38733    3.0831525    11.097673   0.88375748 
  164900    300.15997    3081.7507    11133.335   -217.90965    3.0817507    11.133335   0.88300827 
  165000    300.75631    3176.0204    11243.601    657.02213    3.1760204    11.243601   0.88247535 
  165100    304.57211    3223.8995    11393.836   -641.47827    3.2238995    11.393836    0.8826211 
  165200    304.33415    3169.2672    11332.821    222.95599    3.1692672    11.332821   0.88318733 
  165300    297.52778     3255.257    11236.234   -121.52354     3.255257    11.236234   0.88397363 
  165400    298.33214    3174.3989    11176.953   -860.96224    3.1743989    11.176953   0.88559209 
  165500    300.39498    3107.1275    11165.015    571.95055    3.1071275    11.165015   0.88811201 
  165600    299.57378    3059.9902     11095.85     398.8494    3.0599902     11.09585   0.89069583 
  165700    298.86809    2943.0655    10959.996    989.64506    2.9430655    10.959996   0.89125694 
  165800    295.11195    3114.1809    11030.355   -157.26103    3.1141809    11.030355    0.8898593 
  165900    302.59799    3056.1891    11173.171   -451.54033    3.0561891    11.173171   0.88726196 
  166000    297.18412    3224.5306     11196.29   -64.949353    3.2245306     11.19629   0.88388337 
  166100    298.72319    3135.3447    11148.388    -775.6999    3.1353447    11.148388   0.88129072 
  166200    299.46301    3020.0134    11052.902    135.03047    3.0200134    11.052902   0.88007157 
  166300    294.23132    3142.9686    11035.521    476.68649    3.1429686    11.035521   0.88071956 
  166400    300.38308    3148.3333    11205.902    646.32767    3.1483333    11.205902   0.88233409 
  166500    304.50697    3113.9202    11282.109   -90.991791    3.1139202    11.282109   0.88364399 
  166600    298.98043    3163.4453    11183.389   -85.505488    3.1634453    11.183389    0.8853958 
  166700    299.73391    3036.8609    11077.016    -604.9016    3.0368609    11.077016   0.88680105 
  166800    299.24387    3069.9414    11096.952   -492.79693    3.0699414    11.096952   0.88697699 
  166900    298.65088    3113.0671    11124.171    283.88325    3.1130671    11.124171   0.88590971 
  167000    298.72346    3148.1387    11161.189   -315.43077    3.1481387    11.161189   0.88517075 
  167100     306.3735    2937.6541    11155.912    55.531073    2.9376541    11.155912   0.88473908 
  167200    296.15478    3202.4032    11146.551    213.96896    3.2024032    11.146551   0.88308983 
  167300    300.37421     3064.342    11121.673    55.806676     3.064342    11.121673    0.8810495 
  167400    298.50869    3285.6493    11292.939   -85.069127    3.2856493    11.292939   0.87985365 
  167500    303.10976    3232.2049    11362.915    -726.6749    3.2322049    11.362915   0.87917056 
  167600    301.94715    3164.6614    11264.185   -610.67838    3.1646614    11.264185   0.87821287 
  167700    298.64075    3132.6618    11143.494    387.30273    3.1326618    11.143494   0.87799035 
  167800    297.12754    3166.9281    11137.169   -517.26015    3.1669281    11.137169   0.87863757 
  167900    299.05655     3152.578    11174.563   -289.68241     3.152578    11.174563   0.87967656 
  168000    303.08057      3102.56    11232.487    670.41643      3.10256    11.232487   0.88250293 
  168100    303.75785    3186.0533    11334.148    733.04912    3.1860533    11.334148   0.88447812 
  168200    300.16717    3252.0355    11303.813    242.43231    3.2520355    11.303813   0.88540303 
  168300    300.84612    3069.6338    11139.623   -561.25484    3.0696338    11.139623   0.88524664 
  168400    300.02281    3005.0645    11052.969   -847.66528    3.0050645    11.052969   0.88451229 
  168500    297.13969    3128.1334    11098.701   -548.89347    3.1281334    11.098701   0.88332635 
  168600    300.84261    3155.6292    11225.525    23.738552    3.1556292    11.225525    0.8809751 
  168700    304.12824    3061.8539    11219.884    658.68096    3.0618539    11.219884   0.87873239 
  168800    299.94461    3160.7535    11206.561    490.31197    3.1607535    11.206561   0.87706493 
  168900    298.64702    3175.1735    11186.174    60.245178    3.1751735    11.186174   0.87637213 
  169000    300.88369     3045.876    11116.873   -797.42225     3.045876    11.116873   0.87787518 
  169100    296.24575    3034.9839    10981.572    203.04583    3.0349839    10.981572   0.88187082 
  169200    301.70661    2821.1372    10914.209    600.37061    2.8211372    10.914209    0.8861926 
  169300    298.25672    3079.5366    11080.067   -174.41955    3.0795366    11.080067   0.88934737 
  169400    299.01572     3187.395    11208.285    1766.5761     3.187395    11.208285   0.89071208 
  169500     302.9881    3086.4274    11213.874    -113.9189    3.0864274    11.213874   0.88860518 
  169600    297.87087    3138.5286    11128.709   -266.64849    3.1385286    11.128709   0.88538512 
  169700     297.9563    3002.1219    10994.594    115.77683    3.0021219    10.994594   0.88206308 
  169800    297.14129    3041.4463    11012.056   -809.66563    3.0414463    11.012056   0.88010221 
  169900    303.88758    3069.7204    11221.295    344.52301    3.0697204    11.221295   0.88015102 
  170000    300.79896    3178.1334    11246.858    357.87994    3.1781334    11.246858   0.88190701 
  170100     297.7951    3195.8125    11183.961    116.59991    3.1958125    11.183961   0.88326463 
  170200    303.38707    2952.4957    11090.644   -491.55465    2.9524957    11.090644   0.88367611 
  170300    296.92758    3070.8731     11035.75   -548.15271    3.0708731     11.03575   0.88424234 
  170400    300.18749    3051.9519    11104.274    654.13858    3.0519519    11.104274   0.88482417 
  170500    299.82819    3219.5705    11262.255   -440.87476    3.2195705    11.262255   0.88438963 
  170600    301.26146    3155.0563    11236.187   -94.690023    3.1550563    11.236187   0.88410741 
  170700    301.76308    3042.4774    11137.064   -0.5105813    3.0424774    11.137064   0.88290239 
  170800    299.76877    3068.1529    11109.243   -275.65883    3.0681529    11.109243   0.88174841 
  170900    299.97656    3073.4475    11120.112   -1213.5201    3.0734475    11.120112   0.88182533 
  171000    298.14748    3147.3365    11144.937   -22.101254    3.1473365    11.144937   0.88237085 
  171100    300.66466    3151.1165    11216.238    1055.5831    3.1511165    11.216238    0.8836398 
  171200    301.99421    3236.8755    11337.662   -25.671635    3.2368755    11.337662   0.88347844 
  171300    304.05021    3263.1474    11419.084    373.97845    3.2631474    11.419084   0.88215886 
  171400    303.42702    3088.2516    11227.472    89.398409    3.0882516    11.227472   0.88090692 
  171500    296.98068    3181.7429    11148.045   -595.00115    3.1817429    11.148045   0.88006734 
  171600    301.83111    3045.7437    11142.155    1409.1294    3.0457437    11.142155   0.88052932 
  171700    298.56521    3162.2421    11171.048   -25.277321    3.1622421    11.171048   0.88048552 
  171800    302.67917    3087.7535    11206.913   -837.26989    3.0877535    11.206913   0.88007365 
  171900    306.65895    2975.6117    11201.526    109.56206    2.9756117    11.201526   0.87999982 
  172000    297.40995    3113.4969    11091.313    -2124.362    3.1134969    11.091313   0.88023844 
  172100    297.35734    3048.1206    11024.526    293.49511    3.0481206    11.024526   0.88057827 
  172200    299.55852    3117.1937    11152.644    1342.5595    3.1171937    11.152644    0.8810976 
  172300    299.47153    3206.9101    11240.027    378.13943    3.2069101    11.240027   0.88137045 
  172400    298.96989    3208.8153    11228.476    1316.3617    3.2088153    11.228476   0.88171331 
  172500    303.49757    3069.5602    11210.673   -529.60748    3.0695602    11.210673   0.88234263 
  172600    298.76348    3035.4221    11049.546   -15.043535    3.0354221    11.049546   0.88269991 
  172700    299.75096    2963.6269     11004.24   -860.03045    2.9636269     11.00424   0.88184048 
  172800    297.09032    3095.0781    11064.321   -261.81303    3.0950781    11.064321   0.88099532 
  172900    296.54218    3160.4752    11115.014   -504.15143    3.1604752    11.115014   0.88050175 
  173000    303.85353    3014.9537    11165.615   -519.28322    3.0149537    11.165615   0.88092374 
  173100    299.23405    3190.1906    11216.938     231.7957    3.1901906    11.216938   0.88176253 
  173200    298.24232    3153.3366    11153.481   -647.57662    3.1533366    11.153481    0.8824128 
  173300     298.5238    2941.8091    10949.504     1041.009    2.9418091    10.949504   0.88350692 
  173400    295.70789    3008.9281    10941.088    566.25879    3.0089281    10.941088   0.88459857 
  173500     298.5693    3035.6467    11044.562    285.87067    3.0356467    11.044562   0.88519284 
  173600    300.33159    3056.4545    11112.642     1417.317    3.0564545    11.112642   0.88550132 
  173700     299.5986    3090.6334    11127.159    -1894.945    3.0906334    11.127159   0.88485066 
  173800    300.43615    3099.9213    11158.914   -700.72087    3.0999213    11.158914   0.88388817 
  173900      303.588    3069.9534    11213.492   -1099.1044    3.0699534    11.213492    0.8819955 
  174000    301.61004    3191.0723    11281.553   -1037.9032    3.1910723    11.281553   0.88018946 
  174100    302.35474    3079.5065    11189.964    1443.9533    3.0795065    11.189964   0.87918864 
  174200    294.91707    3166.4391    11077.386    -677.3029    3.1664391    11.077386   0.87890963 
  174300    299.15019    3045.0337    11069.531    387.08112    3.0450337    11.069531   0.87952994 
  174400    303.91944    3014.6329    11167.062    1531.4928    3.0146329    11.167062   0.88124712 
  174500    303.74883    3190.4796    11338.332   -1451.6317    3.1904796    11.338332    0.8827348 
  174600    305.80277    3169.2953    11372.244    669.69694    3.1692953    11.372244   0.88342452 
  174700    296.54513    3272.9667    11227.585    -57.63017    3.2729667    11.227585   0.88266756 
  174800    302.67659    3035.7944    11154.885   -675.88527    3.0357944    11.154885   0.88175048 
  174900    300.16708    3077.9967    11129.771    933.87367    3.0779967    11.129771   0.88058077 
  175000    300.76622    3031.5381    11099.384   -411.23451    3.0315381    11.099384   0.87969843 
  175100    295.78529    3123.2299    11057.466    117.87595    3.1232299    11.057466   0.87946612 
  175200    296.14243    3080.5067    11024.323     19.78973    3.0805067    11.024323   0.87923271 
  175300    303.02107    3017.5249    11145.856    -1261.104    3.0175249    11.145856   0.87967672 
  175400    301.00895     3179.183     11253.54   -55.421985     3.179183     11.25354    0.8812264 
  175500    298.70446    3272.5445    11285.085     841.5658    3.2725445    11.285085   0.88295021 
  175600    301.94087    3112.1455    11211.501    740.16269    3.1121455    11.211501   0.88332744 
  175700    297.74796    3024.1195    11011.003    725.82671    3.0241195    11.011003   0.88351902 
  175800    296.39699    3056.7733    11007.418   -210.44295    3.0567733    11.007418   0.88359347 
  175900    300.88627    3046.1124    11117.179   -411.48324    3.0461124    11.117179   0.88207143 
  176000    301.04982    3160.5162     11235.97   -577.91528    3.1605162     11.23597   0.88007049 
  176100    305.14784    3043.0389    11228.419   -139.33934    3.0430389    11.228419    0.8776743 
  176200    294.48103    3284.9126    11184.163    211.38526    3.2849126    11.184163   0.87587263 
  176300    300.86509    3069.8864    11140.385   -178.36683    3.0698864    11.140385   0.87476107 
  176400    298.82642    3144.1568    11159.969    742.13582    3.1441568    11.159969    0.8740306 
  176500    301.15972    3162.0779    11240.479    557.81693    3.1620779    11.240479   0.87411898 
  176600    300.73613    3247.1138    11314.153   -284.46118    3.2471138    11.314153   0.87601654 
  176700    305.45173    3275.3583     11468.89    1227.5791    3.2753583     11.46889   0.87776611 
  176800    303.62114     3268.814    11413.241    -1368.082     3.268814    11.413241   0.87900412 
  176900    304.10046    3054.1946     11211.48   -1288.4682    3.0541946     11.21148   0.87950702 
  177000    300.08767    3054.9911    11104.636    348.46562    3.0549911    11.104636   0.87993524 
  177100     297.7721    3102.2084    11089.739   -221.61732    3.1022084    11.089739   0.88056529 
  177200    296.68871     3237.974    11196.444    129.01765     3.237974    11.196444   0.88082182 
  177300    307.16012    3043.6973    11283.056     1497.624    3.0436973    11.283056   0.88031807 
  177400    301.30126    3197.0073    11279.205   -609.82832    3.1970073    11.279205    0.8794249 
  177500    297.27306     3096.915     11071.06   -124.19322     3.096915     11.07106   0.87901866 
  177600    300.36632    2998.2262    11055.345    230.77308    2.9982262    11.055345   0.87946244 
  177700    300.74239    3017.5557    11084.763   -844.27443    3.0175557    11.084763   0.88079514 
  177800    299.27261    3168.8332    11196.614    417.80699    3.1688332    11.196614   0.88251815 
  177900    305.64477     3128.174    11326.884   -882.87036     3.128174    11.326884   0.88431086 
  178000    300.63994    3239.9389    11304.398   -612.72635    3.2399389    11.304398   0.88478904 
  178100    299.68389    3090.1085    11128.922    763.84281    3.0901085    11.128922   0.88452541 
  178200    299.60311    3057.0453    11093.692   -944.66641    3.0570453    11.093692   0.88424458 
  178300    300.86795    2993.2753     11063.85    1508.5538    2.9932753     11.06385   0.88339799 
  178400    299.01172    3033.2284    11054.011    856.07598    3.0332284    11.054011   0.88171326 
  178500    296.92782    3257.1149    11221.999    12.216343    3.2571149    11.221999   0.88063505 
  178600     305.5217    3082.9611     11278.37    460.93681    3.0829611     11.27837   0.87885425 
  178700    303.80992    3095.8242    11245.315   -1921.2892    3.0958242    11.245315   0.87773465 
  178800    298.63955    3150.0303     11160.83    -1105.559    3.1500303     11.16083   0.87753772 
  178900      301.531    3012.6357    11100.997   -482.83258    3.0126357    11.100997   0.87798116 
  179000    295.67441     3165.725    11096.987   -205.21637     3.165725    11.096987   0.87930081 
  179100    300.25821    3052.4826    11106.702    1438.4488    3.0524826    11.106702   0.88053299 
  179200    302.57042    3009.8704    11126.113    615.26437    3.0098704    11.126113   0.88146873 
  179300    298.97195    3092.9134     11112.63    1402.9556    3.0929134     11.11263   0.88170687 
  179400    295.65967      3108.91    11039.776   -293.76127      3.10891    11.039776   0.88133831 
  179500     298.6671    3043.3112     11054.85   -746.09061    3.0433112     11.05485   0.88075814 
  179600    303.82703    3039.9731    11189.923    14.812863    3.0399731    11.189923   0.87957421 
  179700    297.49026    3299.1326    11279.103   -1092.5901    3.2991326    11.279103   0.87851421 
  179800     298.7681    3232.6748    11246.923   -85.053784    3.2326748    11.246923   0.87858322 
  179900    299.30088    2983.4762    11012.016   -493.18546    2.9834762    11.012016     0.879065 
  180000    296.48143    3065.9686    11018.878    88.831805    3.0659686    11.018878   0.87960243 
  180100    299.42021    3097.4656    11129.206   -523.36125    3.0974656    11.129206   0.88044054 
  180200    301.43129    3125.1584    11210.845    846.16695    3.1251584    11.210845   0.88093466 
  180300    301.37485    3135.8449    11220.017    943.93859    3.1358449    11.220017   0.88036332 
  180400    298.03671    3145.2688    11139.898   -487.66947    3.1452688    11.139898   0.87938669 
  180500     297.8654    2966.4502    10956.484    1456.5672    2.9664502    10.956484   0.87929411 
  180600    297.78359    3034.4651    11022.304    247.03202    3.0344651    11.022304   0.87889892 
  180700    302.63896    3024.2808    11142.362   -143.93862    3.0242808    11.142362   0.87941737 
  180800    298.84429    3173.3458    11189.638   -125.66788    3.1733458    11.189638   0.88092473 
  180900    301.21184    3101.2353    11181.035   -784.20178    3.1012353    11.181035   0.88131209 
  181000    302.50485    3102.7079    11217.192    -1302.814    3.1027079    11.217192   0.88120217 
  181100    300.65105    3147.1657    11211.923    492.64355    3.1471657    11.211923   0.88085749 
  181200    297.79829    3130.1218    11118.355    776.38349    3.1301218    11.118355   0.87923626 
  181300    295.07903    3158.7845    11074.076    34.864527    3.1587845    11.074076   0.87771686 
  181400    302.62124    2963.5784    11081.184     136.2809    2.9635784    11.081184    0.8765638 
  181500    301.19264    3151.5133    11230.798   -312.73739    3.1515133    11.230798   0.87632838 
  181600    304.37889    3153.7778    11318.531   -130.28438    3.1537778    11.318531    0.8772521 
  181700     297.9709    3267.8741    11260.738   -415.67843    3.2678741    11.260738   0.87844148 
  181800    299.63751    3103.4498    11141.019   -394.95498    3.1034498    11.141019   0.88048929 
  181900    301.54141    3031.0173    11119.657   -395.80241    3.0310173    11.119657   0.88272803 
  182000    301.55459    2998.7642    11087.758   -273.21767    2.9987642    11.087758   0.88539311 
  182100    296.30512     3103.028    11051.208   -142.25224     3.103028    11.051208   0.88787774 
  182200    295.07187    3077.0653    10992.164   -1.5394325    3.0770653    10.992164   0.88919547 
  182300    301.77846    2927.6872    11022.686    956.80988    2.9276872    11.022686   0.88881234 
  182400    300.43345    3115.0616    11173.981    964.64052    3.1150616    11.173981   0.88664679 
  182500    301.39954    3157.9526    11242.787    1313.9808    3.1579526    11.242787   0.88359713 
  182600    303.53763    3068.6353    11210.823    645.48055    3.0686353    11.210823   0.87996575 
  182700     293.1937    3188.3504    11053.069   -1232.2695    3.1883504    11.053069   0.87723014 
  182800     295.9549    3036.6992    10975.485   -1347.6775    3.0366992    10.975485   0.87484754 
  182900    299.52226    3027.6039    11062.082   -786.66645    3.0276039    11.062082   0.87390846 
  183000    295.25058    3215.7345    11135.627     129.5255    3.2157345    11.135627   0.87440588 
  183100    300.15087    3131.7396    11183.079    306.55841    3.1317396    11.183079   0.87558611 
  183200    302.00602     3164.996    11266.099    221.45615     3.164996    11.266099   0.87736259 
  183300    301.51333    3243.3514    11331.238     51.90161    3.2433514    11.331238   0.88057731 
  183400    301.23449    3101.2104    11181.618    496.55774    3.1012104    11.181618   0.88380705 
  183500    300.57633    2989.4799    11052.232    649.25077    2.9894799    11.052232   0.88598029 
  183600     299.8065    3041.5561    11083.658    191.97233    3.0415561    11.083658   0.88630194 
  183700    294.82157    3287.7353     11196.12   -381.82452    3.2877353     11.19612   0.88527281 
  183800    301.78418     3190.031    11285.183   -525.39625     3.190031    11.285183   0.88350815 
  183900     302.2426    3167.3026    11274.752   -344.51665    3.1673026    11.274752   0.88098134 
  184000    297.83963    3102.5835    11091.926   -1094.0121    3.1025835    11.091926   0.87908316 
  184100    301.19831    2892.0094    10971.446    443.24943    2.8920094    10.971446   0.87833609 
  184200    294.70038    3200.7325    11105.867    625.99225    3.2007325    11.105867   0.87754825 
  184300    300.63962    3142.3742    11206.825    308.62641    3.1423742    11.206825   0.87796887 
  184400    299.59447    3216.8914    11253.306    830.30338    3.2168914    11.253306   0.87887338 
  184500    300.98481    3208.7586    11282.468     426.2458    3.2087586    11.282468   0.87992867 
  184600    302.89474    3105.5694    11230.512   -349.87795    3.1055694    11.230512   0.88025089 
  184700    295.53491    3166.5925    11094.112   -346.75732    3.1665925    11.094112   0.88012266 
  184800    297.80421    3061.9594    11050.352   -1020.0013    3.0619594    11.050352   0.88089989 
  184900    299.47049     3148.699    11181.788   -503.31295     3.148699    11.181788   0.88288245 
  185000    302.80808    3152.3256    11274.943    185.12941    3.1523256    11.274943   0.88451727 
  185100    302.69459    3154.0047    11273.578    213.50431    3.1540047    11.273578   0.88544981 
  185200    301.62687    3101.5465    11192.479     350.9299    3.1015465    11.192479   0.88467703 
  185300    296.03288    3212.9634    11153.841   -284.17798    3.2129634    11.153841   0.88338692 
  185400    302.69725     2966.399    11086.044   -379.92507     2.966399    11.086044   0.88200714 
  185500    297.83151    3069.0791    11058.204   -337.18668    3.0690791    11.058204   0.88028265 
  185600     300.8524    3002.3224     11072.48   -209.47442    3.0023224     11.07248    0.8789685 
  185700     298.8569    3242.7379    11259.368    895.26812    3.2427379    11.259368   0.87768994 
  185800    300.40811     3227.898    11286.138    313.76257     3.227898    11.286138   0.87723651 
  185900    299.79166    3166.6694    11208.374    757.99215    3.1666694    11.208374   0.87717302 
  186000    301.20368    2996.6163    11076.197    848.33349    2.9966163    11.076197   0.87746817 
  186100    299.61602    3040.4604    11077.453   -478.86115    3.0404604    11.077453   0.87854778 
  186200     304.9607    3104.8777    11285.238    -428.3414    3.1048777    11.285238   0.88017362 
  186300    299.00752    3311.1352    11331.805   -426.50261    3.3111352    11.331805   0.88197525 
  186400    301.27372    3162.4568    11243.916   -328.65923    3.1624568    11.243916    0.8829262 
  186500    299.25673    3086.5511    11113.906   -410.00026    3.0865511    11.113906   0.88287936 
  186600    295.15263     3121.334      11038.6   -312.07777     3.121334      11.0386   0.88113854 
  186700    296.11152    3138.3777    11081.365    505.41225    3.1383777    11.081365   0.87965994 
  186800    303.75793    2991.8729     11139.97   -118.52943    2.9918729     11.13997    0.8793842 
  186900    302.62572    3065.1991    11182.925    539.01448    3.0651991    11.182925   0.87976142 
  187000    300.36079    3111.3598    11168.331       1019.2    3.1113598    11.168331   0.88075924 
  187100    296.91011    3035.9221    11000.331    11.325543    3.0359221    11.000331    0.8815429 
  187200    297.09415    2936.1389    10905.484    126.10118    2.9361389    10.905484   0.88160108 
  187300     298.5049    3020.0254    11027.213   -1710.8448    3.0200254    11.027213   0.88198646 
  187400     297.8648    3130.9231    11120.941   -877.78224    3.1309231    11.120941   0.88208177 
  187500    300.68536    3107.3721    11173.049    285.29952    3.1073721    11.173049   0.88206968 
  187600    302.06456    3113.5019    11216.175   -592.98054    3.1135019    11.216175   0.88160589 
  187700     302.9024    3051.1974    11176.345    1754.8123    3.0511974    11.176345   0.88050294 
  187800    298.60087    3044.8143    11054.576    797.55107    3.0448143    11.054576   0.87933385 
  187900    298.29437    3009.6311    11011.172    443.07739    3.0096311    11.011172   0.87836849 
  188000     297.6988    3130.9434    11116.508     3.631718    3.1309434    11.116508    0.8782186 
  188100    300.80561    3217.8671     11286.77   -1799.0094    3.2178671     11.28677   0.87843644 
  188200    304.28672    3115.8117    11278.093   -130.18249    3.1158117    11.278093   0.87838657 
  188300    299.74355    3148.9495    11189.363   0.69845881    3.1489495    11.189363   0.87851575 
  188400    297.25184    3145.1945     11118.77   -560.45098    3.1451945     11.11877   0.87851229 
  188500    299.06211    3045.5988    11067.734    1149.9301    3.0455988    11.067734   0.87912023 
  188600    293.48101    3084.1976    10956.623   -403.09084    3.0841976    10.956623   0.87959964 
  188700    298.41665    3002.2884    11007.109    42.937128    3.0022884    11.007109   0.87984522 
  188800    302.16667    3070.3875      11175.8    478.33878    3.0703875      11.1758   0.87991176 
  188900    300.44276    3194.4793    11253.649    29.528501    3.1944793    11.253649   0.87975464 
  189000    302.98799    3133.1785    11260.622    269.85001    3.1331785    11.260622    0.8785046 
  189100     298.7907    3204.3748    11219.229   -436.00743    3.2043748    11.219229   0.87693692 
  189200    299.45753    3020.3667    11053.108    236.13744    3.0203667    11.053108   0.87608676 
  189300    294.39435    3165.7735    11062.699   -265.72323    3.1657735    11.062699   0.87655791 
  189400    304.35179    2999.2392    11163.266    133.70153    2.9992392    11.163266   0.87738896 
  189500    300.78722    3118.5699    11186.979    352.55115    3.1185699    11.186979   0.87934294 
  189600    298.92804    3168.9273    11187.466   -944.95834    3.1689273    11.187466   0.88267416 
  189700     301.9194     3062.637    11161.417    123.57159     3.062637    11.161417   0.88564458 
  189800    300.11179    3019.7202    11070.012    298.09886    3.0197202    11.070012   0.88645701 
  189900    296.75317    3015.3494    10975.548    48.813145    3.0153494    10.975548   0.88498258 
  190000    294.14911    3026.9028     10917.25   -474.75223    3.0269028     10.91725   0.88281861 
  190100    295.62724    3114.2558    11044.253   -571.70485    3.1142558    11.044253   0.87928104 
  190200    303.29939    3050.5494    11186.346    280.58591    3.0505494    11.186346    0.8753579 
  190300    301.47943    3155.4062    11242.384   -238.96256    3.1554062    11.242384   0.87222015 
  190400    299.86678    3275.2292    11318.949    268.76324    3.2752292    11.318949   0.87033611 
  190500    302.94207    3240.8259    11367.038    532.39593    3.2408259    11.367038   0.87090428 
  190600    298.98789    3203.4133    11223.557   -620.31001    3.2034133    11.223557   0.87221646 
  190700    300.09988    3041.0144    11090.987    594.43604    3.0410144    11.090987   0.87399098 
  190800    294.89253    3228.2184    11138.507   -596.92165    3.2282184    11.138507   0.87611951 
  190900    302.45554    3143.0065    11256.168   -308.61127    3.1430065    11.256168   0.87864148 
  191000    301.50632    3209.8389    11297.538    219.20047    3.2098389    11.297538   0.88005082 
  191100    300.76348    3165.3199    11233.092    -622.2411    3.1653199    11.233092   0.88044197 
  191200    303.70317    3018.6022     11165.23    523.61127    3.0186022     11.16523   0.88026204 
  191300    296.74455    3175.8154    11135.783    1017.6243    3.1758154    11.135783   0.88057945 
  191400    300.05284    3105.4889    11154.199    690.46524    3.1054889    11.154199   0.88065352 
  191500    303.08081    3090.4983    11220.432    381.31619    3.0904983    11.220432   0.88053217 
  191600    303.02231    3136.3985    11264.763   -177.31917    3.1363985    11.264763   0.88004692 
  191700    299.84392    3141.8119    11184.918   -449.15538    3.1418119    11.184918   0.87861093 
  191800    295.67075    3132.3346    11063.499   -1313.0481    3.1323346    11.063499   0.87696263 
  191900    301.06721    2920.1173    10996.037   -152.93425    2.9201173    10.996037   0.87607273 
  192000    297.02036    3128.6166    11095.983   -559.02274    3.1286166    11.095983    0.8757134 
  192100    302.75641     3168.343    11289.575    827.55894     3.168343    11.289575   0.87616281 
  192200    302.87729    3142.4869    11266.961    87.356709    3.1424869    11.266961    0.8763496 
  192300    297.78305     3178.422    11166.247    283.09612     3.178422    11.166247   0.87632348 
  192400    300.45623    3033.5019    11093.033    304.91372    3.0335019    11.093033   0.87615702 
  192500    297.93137    3202.8295    11194.633   -132.15089    3.2028295    11.194633    0.8757625 
  192600    306.62778    3119.4778    11344.556   -359.44565    3.1194778    11.344556   0.87495361 
  192700    299.27584    3259.5922     11287.46    22.449726    3.2595922     11.28746    0.8742546 
  192800    297.80733    3217.1403    11205.616   -457.06157    3.2171403    11.205616   0.87395786 
  192900    300.39359    3077.8026    11135.653   -96.595036    3.0778026    11.135653   0.87417054 
  193000    297.70071    3150.1379    11135.754    380.33875    3.1501379    11.135754   0.87482146 
  193100    307.22166    3103.5343    11344.543   -229.78637    3.1035343    11.344543   0.87582722 
  193200    299.38539    3364.6726    11395.479    981.22344    3.3646726    11.395479   0.87679653 
  193300    306.10434    3087.7589    11298.796   -145.90982    3.0877589    11.298796   0.87690074 
  193400    296.97195    3259.5141    11225.582   -1099.0345    3.2595141    11.225582   0.87619466 
  193500    298.58405     3183.323    11192.634   -70.094453     3.183323    11.192634   0.87568491 
  193600    301.55503    3047.0381    11136.043   -615.96539    3.0470381    11.136043   0.87622954 
  193700    298.16199     3060.398    11058.388   -320.41473     3.060398    11.058388   0.87774979 
  193800    296.00966    2916.9806    10857.235      799.039    2.9169806    10.857235   0.87965249 
  193900    293.97623    3057.8165    10943.526     392.3705    3.0578165    10.943526   0.88249705 
  194000    303.07769    2940.3564    11070.206    947.80441    2.9403564    11.070206   0.88546812 
  194100    301.27819    3047.2797    11128.859   -525.39609    3.0472797    11.128859   0.88555058 
  194200     298.5319    3153.1961    11161.108   -507.15796    3.1531961    11.161108   0.88470773 
  194300    300.28739    3117.4633    11172.465     91.60205    3.1174633    11.172465   0.88202624 
  194400    297.45769    3158.8267    11137.924   -770.06635    3.1588267    11.137924   0.87854085 
  194500    297.99552    3105.4201    11098.944    154.71475    3.1054201    11.098944   0.87598473 
  194600    299.90202    3075.5867    11120.251    361.75451    3.0755867    11.120251   0.87404671 
  194700    299.16903    3233.7105    11258.713   -46.954401    3.2337105    11.258713   0.87355832 
  194800    305.09316    3167.6617    11351.575    369.18285    3.1676617    11.351575   0.87340775 
  194900    299.16464    3303.2735    11328.158   -843.35764    3.3032735    11.328158   0.87362355 
  195000    302.35653    3105.0177    11215.523    152.18702    3.1050177    11.215523   0.87443209 
  195100    300.91609    3117.2877    11189.154    191.08041    3.1172877    11.189154   0.87545059 
  195200    295.19772    3279.2867    11197.762    222.01659    3.2792867    11.197762    0.8769067 
  195300    301.50336    3103.2533    11190.873    790.49082    3.1032533    11.190873   0.87891106 
  195400    303.38441    3067.5112    11205.589   -147.62703    3.0675112    11.205589   0.88097352 
  195500    296.41452    3253.8135    11204.928    484.62541    3.2538135    11.204928   0.88166063 
  195600    301.30159    3006.9275    11089.135   -472.79423    3.0069275    11.089135   0.88054493 
  195700    294.19825    3112.6594    11004.324   -1526.8296    3.1126594    11.004324   0.87841863 
  195800     303.1296    2921.3347    11052.577     569.3978    2.9213347    11.052577   0.87748914 
  195900    301.04188    3171.0715    11246.312   -950.14035    3.1710715    11.246312   0.87802392 
  196000    299.64745    3242.1476    11279.983    655.18622    3.2421476    11.279983   0.87974758 
  196100    300.54796    3143.5778    11205.569    996.21397    3.1435778    11.205569   0.88133073 
  196200    299.17315    3107.8278    11132.941   -1467.1344    3.1078278    11.132941    0.8814283 
  196300    298.88643    3139.5445    11156.967    119.18551    3.1395445    11.156967   0.88049944 
  196400    301.03676    3108.4753    11183.578     143.8797    3.1084753    11.183578   0.87956084 
  196500    300.77081    3134.7226    11202.692   -1037.1929    3.1347226    11.202692   0.87872892 
  196600     304.0216    3019.6771    11174.847    1546.2973    3.0196771    11.174847   0.87783009 
  196700    298.44325    3113.3559     11118.89   -581.59345    3.1133559     11.11889   0.87698534 
  196800    296.22534    3116.5689    11062.609   -489.56182    3.1165689    11.062609   0.87613062 
  196900    301.39155    2979.2686    11063.889   -420.99626    2.9792686    11.063889   0.87495379 
  197000    294.39672    3344.9998    11241.989   -1592.0437    3.3449998    11.241989   0.87473524 
  197100    303.58116    3186.9747     11330.33   -56.445615    3.1869747     11.33033   0.87560743 
  197200    304.49451    3101.1134    11268.969     340.5014    3.1011134    11.268969   0.87642255 
  197300     294.7638    3244.5896    11151.425    992.27344    3.2445896    11.151425    0.8770662 
  197400    299.78584    3087.6064    11129.155    291.65031    3.0876064    11.129155   0.87708391 
  197500    298.95236    3150.1402    11169.331    348.96063    3.1501402    11.169331   0.87783788 
  197600    300.59655    3130.9432    11194.238    1173.9161    3.1309432    11.194238   0.87895487 
  197700    300.04375    3147.6291    11196.096   -915.09991    3.1476291    11.196096   0.87943863 
  197800    297.43343    3065.0789    11043.525    552.44084    3.0650789    11.043525   0.87938334 
  197900     296.6507    3027.2122    10984.662    236.32633    3.0272122    10.984662   0.87973679 
  198000    298.71225    3053.3918    11066.142   -1705.6402    3.0533918    11.066142   0.87931009 
  198100    303.91522    3032.1429    11184.459    258.92097    3.0321429    11.184459   0.87855914 
  198200    301.05761    3186.6536    11262.316   -710.76282    3.1866536    11.262316    0.8782032 
  198300    300.75484    3203.7311    11271.272   -561.59336    3.2037311    11.271272   0.87859607 
  198400     298.3179    3220.1302    11222.302    1202.7991    3.2201302    11.222302   0.87918482 
  198500    300.61881    3123.9233    11187.816   -639.69685    3.1239233    11.187816   0.87918241 
  198600    296.28977    3218.3951    11166.164    26.953784    3.2183951    11.166164   0.87921306 
  198700    300.65501    3010.9501    11075.813    228.14952    3.0109501    11.075813    0.8793438 
  198800    300.10827    2954.1584    11004.356   -628.79496    2.9541584    11.004356   0.88030156 
  198900     295.9002    2997.8556    10935.174    1285.9615    2.9978556    10.935174    0.8818766 
  199000    294.57055    3046.2774    10947.929    386.22549    3.0462774    10.947929   0.88278028 
  199100    302.21562    3017.3653    11124.091   -218.37283    3.0173653    11.124091   0.88343574 
  199200    300.11845    3125.7864    11176.257    75.715014    3.1257864    11.176257   0.88346469 
  199300    299.20097    3154.6187    11180.478   -105.80037    3.1546187    11.180478   0.88260215 
  199400     302.5787    3039.3819    11155.846   -35.461217    3.0393819    11.155846   0.88203971 
  199500    295.25316    3141.7095    11061.672   -543.08235    3.1417095    11.061672   0.88184476 
  199600    301.27278    2975.3173    11056.752    588.48073    2.9753173    11.056752   0.88273433 
  199700    299.69869    3128.2563    11167.467   -75.252895    3.1282563    11.167467   0.88445939 
  199800    306.71934    3029.7026    11257.237   -10.549128    3.0297026    11.257237   0.88569473 
  199900    298.72725    3193.6498    11206.802    1078.9831    3.1936498    11.206802    0.8853057 
  200000    298.60413    3013.8442    11023.694   -604.49476    3.0138442    11.023694   0.88364802 
Loop time of 6243.89 on 20 procs for 200000 steps with 9000 atoms

Performance: 2.768 ns/day, 8.672 hours/ns, 32.031 timesteps/s
99.1% CPU use with 20 MPI tasks x no OpenMP threads

MPI task timing breakdown:
Section |  min time  |  avg time  |  max time  |%varavg| %total
---------------------------------------------------------------
Pair    | 2133.7     | 2185.5     | 2283.6     |  89.6 | 35.00
Bond    | 32.806     | 33.951     | 34.953     |  10.6 |  0.54
Kspace  | 181.06     | 279.86     | 333.08     | 251.4 |  4.48
Neigh   | 3516.4     | 3517.8     | 3518.9     |   1.1 | 56.34
Comm    | 154.04     | 166.37     | 171.81     |  47.2 |  2.66
Output  | 0.40731    | 0.41782    | 0.60788    |   6.7 |  0.01
Modify  | 24.698     | 29.99      | 42.029     | 109.9 |  0.48
Other   |            | 29.94      |            |       |  0.48

Nlocal:    450 ave 474 max 428 min
Histogram: 3 2 2 0 2 3 4 1 1 2
Nghost:    13395.2 ave 13459 max 13329 min
Histogram: 1 3 1 2 2 2 5 1 1 2
Neighs:    481177 ave 507812 max 451228 min
Histogram: 2 1 2 1 2 4 2 3 1 2

Total # of neighbors = 9623537
Ave neighs/atom = 1069.28
Ave special neighs/atom = 7.33333
Neighbor list builds = 200000
Dangerous builds not checked
unfix			rlx

write_data 		rlx.lmp
PPPM initialization ...
WARNING: Using 12-bit tables for long-range coulomb (../kspace.cpp:321)
  G vector (1/distance) = 0.186633
  grid = 20 16 20
  stencil order = 5
  estimated absolute RMS force accuracy = 0.0025649
  estimated relative force accuracy = 7.72411e-06
  using double precision FFTs
  3d grid and FFT values/proc = 1755 320

Total wall time: 1:44:04
